    1C
    1UUSER                                                              
    1UDATE              14.january.2014                                 
    1UTIME              19:56:54                                        
    1UHOST                                                              
    1UPGM               CalculiX                                        
    1UDIR                                                               
    1UDBN                                                               
    2C                          1819                                     1
 -1         1 5.50000E-02 1.50000E-02 0.00000E+00
 -1         2 5.50000E-02 1.50000E-02 2.00000E-02
 -1         3-2.00000E-02 1.50000E-02 2.00000E-02
 -1         4-2.00000E-02 1.50000E-02 0.00000E+00
 -1         5 5.50000E-02 4.00000E-02 2.00000E-02
 -1         6-2.00000E-02 4.00000E-02 2.00000E-02
 -1         7-2.00000E-02 4.00000E-02 0.00000E+00
 -1         8 5.50000E-02 4.00000E-02 0.00000E+00
 -1         9 5.50000E-02-1.00000E-02 0.00000E+00
 -1        10 5.50000E-02-1.00000E-02 2.00000E-02
 -1        11-2.00000E-02-1.00000E-02 2.00000E-02
 -1        12-2.00000E-02-1.00000E-02 0.00000E+00
 -1        13 8.00000E-02 3.00000E-02 2.00000E-02
 -1        14 8.00000E-02 3.00000E-02 0.00000E+00
 -1        15 9.50000E-02 1.50000E-02 0.00000E+00
 -1        16 9.50000E-02 1.50000E-02 2.00000E-02
 -1        17 8.00000E-02 4.00000E-02 0.00000E+00
 -1        18 1.05000E-01 1.50000E-02 0.00000E+00
 -1        19 1.05000E-01 1.50000E-02 2.00000E-02
 -1        20 8.00000E-02 4.00000E-02 2.00000E-02
 -1        21 8.00000E-02 0.00000E+00 0.00000E+00
 -1        22 8.00000E-02 0.00000E+00 2.00000E-02
 -1        23 8.00000E-02-1.00000E-02 2.00000E-02
 -1        24 8.00000E-02-1.00000E-02 0.00000E+00
 -1        25 6.50000E-02 1.50000E-02 0.00000E+00
 -1        26 6.50000E-02 1.50000E-02 2.00000E-02
 -1        27 5.50000E-02 1.50000E-02 6.66667E-03
 -1        28 5.50000E-02 1.50000E-02 1.33333E-02
 -1        29 4.81818E-02 1.50000E-02 2.00000E-02
 -1        30 4.13636E-02 1.50000E-02 2.00000E-02
 -1        31 3.45455E-02 1.50000E-02 2.00000E-02
 -1        32 2.77273E-02 1.50000E-02 2.00000E-02
 -1        33 2.09091E-02 1.50000E-02 2.00000E-02
 -1        34 1.40909E-02 1.50000E-02 2.00000E-02
 -1        35 7.27273E-03 1.50000E-02 2.00000E-02
 -1        36 4.54545E-04 1.50000E-02 2.00000E-02
 -1        37-6.36364E-03 1.50000E-02 2.00000E-02
 -1        38-1.31818E-02 1.50000E-02 2.00000E-02
 -1        39-2.00000E-02 1.50000E-02 1.33333E-02
 -1        40-2.00000E-02 1.50000E-02 6.66667E-03
 -1        41-1.31818E-02 1.50000E-02 0.00000E+00
 -1        42-6.36364E-03 1.50000E-02 0.00000E+00
 -1        43 4.54545E-04 1.50000E-02 0.00000E+00
 -1        44 7.27273E-03 1.50000E-02 0.00000E+00
 -1        45 1.40909E-02 1.50000E-02 0.00000E+00
 -1        46 2.09091E-02 1.50000E-02 0.00000E+00
 -1        47 2.77273E-02 1.50000E-02 0.00000E+00
 -1        48 3.45455E-02 1.50000E-02 0.00000E+00
 -1        49 4.13636E-02 1.50000E-02 0.00000E+00
 -1        50 4.81818E-02 1.50000E-02 0.00000E+00
 -1        51 5.50000E-02 4.00000E-02 1.33333E-02
 -1        52 5.50000E-02 4.00000E-02 6.66667E-03
 -1        53-1.31818E-02 4.00000E-02 2.00000E-02
 -1        54-6.36364E-03 4.00000E-02 2.00000E-02
 -1        55 4.54545E-04 4.00000E-02 2.00000E-02
 -1        56 7.27273E-03 4.00000E-02 2.00000E-02
 -1        57 1.40909E-02 4.00000E-02 2.00000E-02
 -1        58 2.09091E-02 4.00000E-02 2.00000E-02
 -1        59 2.77273E-02 4.00000E-02 2.00000E-02
 -1        60 3.45455E-02 4.00000E-02 2.00000E-02
 -1        61 4.13636E-02 4.00000E-02 2.00000E-02
 -1        62 4.81818E-02 4.00000E-02 2.00000E-02
 -1        63-2.00000E-02 4.00000E-02 6.66667E-03
 -1        64-2.00000E-02 4.00000E-02 1.33333E-02
 -1        65 4.81818E-02 4.00000E-02 0.00000E+00
 -1        66 4.13636E-02 4.00000E-02 0.00000E+00
 -1        67 3.45455E-02 4.00000E-02 0.00000E+00
 -1        68 2.77273E-02 4.00000E-02 0.00000E+00
 -1        69 2.09091E-02 4.00000E-02 0.00000E+00
 -1        70 1.40909E-02 4.00000E-02 0.00000E+00
 -1        71 7.27273E-03 4.00000E-02 0.00000E+00
 -1        72 4.54545E-04 4.00000E-02 0.00000E+00
 -1        73-6.36364E-03 4.00000E-02 0.00000E+00
 -1        74-1.31818E-02 4.00000E-02 0.00000E+00
 -1        75-2.00000E-02 2.33333E-02 0.00000E+00
 -1        76-2.00000E-02 3.16667E-02 0.00000E+00
 -1        77 5.50000E-02 3.16667E-02 0.00000E+00
 -1        78 5.50000E-02 2.33333E-02 0.00000E+00
 -1        79-2.00000E-02 3.16667E-02 2.00000E-02
 -1        80-2.00000E-02 2.33333E-02 2.00000E-02
 -1        81 5.50000E-02 2.33333E-02 2.00000E-02
 -1        82 5.50000E-02 3.16667E-02 2.00000E-02
 -1        83 5.50000E-02-1.00000E-02 6.66667E-03
 -1        84 5.50000E-02-1.00000E-02 1.33333E-02
 -1        85 4.81818E-02-1.00000E-02 2.00000E-02
 -1        86 4.13636E-02-1.00000E-02 2.00000E-02
 -1        87 3.45455E-02-1.00000E-02 2.00000E-02
 -1        88 2.77273E-02-1.00000E-02 2.00000E-02
 -1        89 2.09091E-02-1.00000E-02 2.00000E-02
 -1        90 1.40909E-02-1.00000E-02 2.00000E-02
 -1        91 7.27273E-03-1.00000E-02 2.00000E-02
 -1        92 4.54545E-04-1.00000E-02 2.00000E-02
 -1        93-6.36364E-03-1.00000E-02 2.00000E-02
 -1        94-1.31818E-02-1.00000E-02 2.00000E-02
 -1        95-2.00000E-02-1.00000E-02 1.33333E-02
 -1        96-2.00000E-02-1.00000E-02 6.66667E-03
 -1        97-1.31818E-02-1.00000E-02 0.00000E+00
 -1        98-6.36364E-03-1.00000E-02 0.00000E+00
 -1        99 4.54545E-04-1.00000E-02 0.00000E+00
 -1       100 7.27273E-03-1.00000E-02 0.00000E+00
 -1       101 1.40909E-02-1.00000E-02 0.00000E+00
 -1       102 2.09091E-02-1.00000E-02 0.00000E+00
 -1       103 2.77273E-02-1.00000E-02 0.00000E+00
 -1       104 3.45455E-02-1.00000E-02 0.00000E+00
 -1       105 4.13636E-02-1.00000E-02 0.00000E+00
 -1       106 4.81818E-02-1.00000E-02 0.00000E+00
 -1       107-2.00000E-02-1.66667E-03 0.00000E+00
 -1       108-2.00000E-02 6.66667E-03 0.00000E+00
 -1       109 5.50000E-02 6.66667E-03 0.00000E+00
 -1       110 5.50000E-02-1.66667E-03 0.00000E+00
 -1       111-2.00000E-02 6.66667E-03 2.00000E-02
 -1       112-2.00000E-02-1.66667E-03 2.00000E-02
 -1       113 5.50000E-02-1.66667E-03 2.00000E-02
 -1       114 5.50000E-02 6.66667E-03 2.00000E-02
 -1       115 8.00000E-02 3.00000E-02 1.33333E-02
 -1       116 8.00000E-02 3.00000E-02 6.66667E-03
 -1       117 8.57403E-02 2.88582E-02 0.00000E+00
 -1       118 9.06066E-02 2.56066E-02 0.00000E+00
 -1       119 9.38582E-02 2.07403E-02 0.00000E+00
 -1       120 9.50000E-02 1.50000E-02 6.66667E-03
 -1       121 9.50000E-02 1.50000E-02 1.33333E-02
 -1       122 9.38582E-02 2.07403E-02 2.00000E-02
 -1       123 9.06066E-02 2.56066E-02 2.00000E-02
 -1       124 8.57403E-02 2.88582E-02 2.00000E-02
 -1       125 8.00000E-02 4.00000E-02 6.66667E-03
 -1       126 8.00000E-02 4.00000E-02 1.33333E-02
 -1       127 1.03097E-01 2.45671E-02 0.00000E+00
 -1       128 9.76777E-02 3.26777E-02 0.00000E+00
 -1       129 8.95671E-02 3.80970E-02 0.00000E+00
 -1       130 1.05000E-01 1.50000E-02 1.33333E-02
 -1       131 1.05000E-01 1.50000E-02 6.66667E-03
 -1       132 8.95671E-02 3.80970E-02 2.00000E-02
 -1       133 9.76777E-02 3.26777E-02 2.00000E-02
 -1       134 1.03097E-01 2.45671E-02 2.00000E-02
 -1       135 1.00000E-01 1.50000E-02 2.00000E-02
 -1       136 8.00000E-02 3.50000E-02 2.00000E-02
 -1       137 1.00000E-01 1.50000E-02 0.00000E+00
 -1       138 8.00000E-02 3.50000E-02 0.00000E+00
 -1       139 8.00000E-02 0.00000E+00 6.66667E-03
 -1       140 8.00000E-02 0.00000E+00 1.33333E-02
 -1       141 8.57403E-02 1.14181E-03 2.00000E-02
 -1       142 9.06066E-02 4.39340E-03 2.00000E-02
 -1       143 9.38582E-02 9.25975E-03 2.00000E-02
 -1       144 9.38582E-02 9.25975E-03 0.00000E+00
 -1       145 9.06066E-02 4.39340E-03 0.00000E+00
 -1       146 8.57403E-02 1.14181E-03 0.00000E+00
 -1       147 8.00000E-02-1.00000E-02 1.33333E-02
 -1       148 8.00000E-02-1.00000E-02 6.66667E-03
 -1       149 1.03097E-01 5.43291E-03 2.00000E-02
 -1       150 9.76777E-02-2.67767E-03 2.00000E-02
 -1       151 8.95671E-02-8.09699E-03 2.00000E-02
 -1       152 8.95671E-02-8.09699E-03 0.00000E+00
 -1       153 9.76777E-02-2.67767E-03 0.00000E+00
 -1       154 1.03097E-01 5.43291E-03 0.00000E+00
 -1       155 8.00000E-02-5.00000E-03 0.00000E+00
 -1       156 8.00000E-02-5.00000E-03 2.00000E-02
 -1       157 6.00000E-02 1.50000E-02 2.00000E-02
 -1       158 6.00000E-02 1.50000E-02 0.00000E+00
 -1       159 6.50000E-02 1.50000E-02 6.66667E-03
 -1       160 6.50000E-02 1.50000E-02 1.33333E-02
 -1       161 6.61418E-02 9.25975E-03 0.00000E+00
 -1       162 6.93934E-02 4.39340E-03 0.00000E+00
 -1       163 7.42598E-02 1.14181E-03 0.00000E+00
 -1       164 6.61418E-02 9.25975E-03 2.00000E-02
 -1       165 6.93934E-02 4.39340E-03 2.00000E-02
 -1       166 7.42598E-02 1.14181E-03 2.00000E-02
 -1       167 6.33333E-02-1.00000E-02 2.00000E-02
 -1       168 7.16667E-02-1.00000E-02 2.00000E-02
 -1       169 6.33333E-02-1.00000E-02 0.00000E+00
 -1       170 7.16667E-02-1.00000E-02 0.00000E+00
 -1       171 6.61418E-02 2.07403E-02 0.00000E+00
 -1       172 6.93934E-02 2.56066E-02 0.00000E+00
 -1       173 7.42598E-02 2.88582E-02 0.00000E+00
 -1       174 6.61418E-02 2.07403E-02 2.00000E-02
 -1       175 6.93934E-02 2.56066E-02 2.00000E-02
 -1       176 7.42598E-02 2.88582E-02 2.00000E-02
 -1       177 6.33333E-02 4.00000E-02 0.00000E+00
 -1       178 7.16667E-02 4.00000E-02 0.00000E+00
 -1       179 6.33333E-02 4.00000E-02 2.00000E-02
 -1       180 7.16667E-02 4.00000E-02 2.00000E-02
 -1       181 4.81818E-02 1.50000E-02 6.66667E-03
 -1       182 4.81818E-02 1.50000E-02 1.33333E-02
 -1       183 4.13636E-02 1.50000E-02 6.66667E-03
 -1       184 4.13636E-02 1.50000E-02 1.33333E-02
 -1       185 3.45455E-02 1.50000E-02 6.66667E-03
 -1       186 3.45455E-02 1.50000E-02 1.33333E-02
 -1       187 2.77273E-02 1.50000E-02 6.66667E-03
 -1       188 2.77273E-02 1.50000E-02 1.33333E-02
 -1       189 2.09091E-02 1.50000E-02 6.66667E-03
 -1       190 2.09091E-02 1.50000E-02 1.33333E-02
 -1       191 1.40909E-02 1.50000E-02 6.66667E-03
 -1       192 1.40909E-02 1.50000E-02 1.33333E-02
 -1       193 7.27273E-03 1.50000E-02 6.66667E-03
 -1       194 7.27273E-03 1.50000E-02 1.33333E-02
 -1       195 4.54545E-04 1.50000E-02 6.66667E-03
 -1       196 4.54545E-04 1.50000E-02 1.33333E-02
 -1       197-6.36364E-03 1.50000E-02 6.66667E-03
 -1       198-6.36364E-03 1.50000E-02 1.33333E-02
 -1       199-1.31818E-02 1.50000E-02 6.66667E-03
 -1       200-1.31818E-02 1.50000E-02 1.33333E-02
 -1       201 4.81818E-02 4.00000E-02 6.66667E-03
 -1       202 4.81818E-02 4.00000E-02 1.33333E-02
 -1       203 4.13636E-02 4.00000E-02 6.66667E-03
 -1       204 4.13636E-02 4.00000E-02 1.33333E-02
 -1       205 3.45455E-02 4.00000E-02 6.66667E-03
 -1       206 3.45455E-02 4.00000E-02 1.33333E-02
 -1       207 2.77273E-02 4.00000E-02 6.66667E-03
 -1       208 2.77273E-02 4.00000E-02 1.33333E-02
 -1       209 2.09091E-02 4.00000E-02 6.66667E-03
 -1       210 2.09091E-02 4.00000E-02 1.33333E-02
 -1       211 1.40909E-02 4.00000E-02 6.66667E-03
 -1       212 1.40909E-02 4.00000E-02 1.33333E-02
 -1       213 7.27273E-03 4.00000E-02 6.66667E-03
 -1       214 7.27273E-03 4.00000E-02 1.33333E-02
 -1       215 4.54545E-04 4.00000E-02 6.66667E-03
 -1       216 4.54545E-04 4.00000E-02 1.33333E-02
 -1       217-6.36364E-03 4.00000E-02 6.66667E-03
 -1       218-6.36364E-03 4.00000E-02 1.33333E-02
 -1       219-1.31818E-02 4.00000E-02 6.66667E-03
 -1       220-1.31818E-02 4.00000E-02 1.33333E-02
 -1       221 4.81818E-02 2.33333E-02 0.00000E+00
 -1       222 4.13636E-02 2.33333E-02 0.00000E+00
 -1       223 3.45455E-02 2.33333E-02 0.00000E+00
 -1       224 2.77273E-02 2.33333E-02 0.00000E+00
 -1       225 2.09091E-02 2.33333E-02 0.00000E+00
 -1       226 1.40909E-02 2.33333E-02 0.00000E+00
 -1       227 7.27273E-03 2.33333E-02 0.00000E+00
 -1       228 4.54545E-04 2.33333E-02 0.00000E+00
 -1       229-6.36364E-03 2.33333E-02 0.00000E+00
 -1       230-1.31818E-02 2.33333E-02 0.00000E+00
 -1       231 4.81818E-02 3.16667E-02 0.00000E+00
 -1       232 4.13636E-02 3.16667E-02 0.00000E+00
 -1       233 3.45455E-02 3.16667E-02 0.00000E+00
 -1       234 2.77273E-02 3.16667E-02 0.00000E+00
 -1       235 2.09091E-02 3.16667E-02 0.00000E+00
 -1       236 1.40909E-02 3.16667E-02 0.00000E+00
 -1       237 7.27273E-03 3.16667E-02 0.00000E+00
 -1       238 4.54545E-04 3.16667E-02 0.00000E+00
 -1       239-6.36364E-03 3.16667E-02 0.00000E+00
 -1       240-1.31818E-02 3.16667E-02 0.00000E+00
 -1       241 4.81818E-02 2.33333E-02 2.00000E-02
 -1       242 4.13636E-02 2.33333E-02 2.00000E-02
 -1       243 3.45455E-02 2.33333E-02 2.00000E-02
 -1       244 2.77273E-02 2.33333E-02 2.00000E-02
 -1       245 2.09091E-02 2.33333E-02 2.00000E-02
 -1       246 1.40909E-02 2.33333E-02 2.00000E-02
 -1       247 7.27273E-03 2.33333E-02 2.00000E-02
 -1       248 4.54545E-04 2.33333E-02 2.00000E-02
 -1       249-6.36364E-03 2.33333E-02 2.00000E-02
 -1       250-1.31818E-02 2.33333E-02 2.00000E-02
 -1       251 4.81818E-02 3.16667E-02 2.00000E-02
 -1       252 4.13636E-02 3.16667E-02 2.00000E-02
 -1       253 3.45455E-02 3.16667E-02 2.00000E-02
 -1       254 2.77273E-02 3.16667E-02 2.00000E-02
 -1       255 2.09091E-02 3.16667E-02 2.00000E-02
 -1       256 1.40909E-02 3.16667E-02 2.00000E-02
 -1       257 7.27273E-03 3.16667E-02 2.00000E-02
 -1       258 4.54545E-04 3.16667E-02 2.00000E-02
 -1       259-6.36364E-03 3.16667E-02 2.00000E-02
 -1       260-1.31818E-02 3.16667E-02 2.00000E-02
 -1       261 5.50000E-02 2.33333E-02 6.66667E-03
 -1       262 5.50000E-02 2.33333E-02 1.33333E-02
 -1       263 5.50000E-02 3.16667E-02 6.66667E-03
 -1       264 5.50000E-02 3.16667E-02 1.33333E-02
 -1       265-2.00000E-02 2.33333E-02 6.66667E-03
 -1       266-2.00000E-02 2.33333E-02 1.33333E-02
 -1       267-2.00000E-02 3.16667E-02 6.66667E-03
 -1       268-2.00000E-02 3.16667E-02 1.33333E-02
 -1       269 4.81818E-02-1.00000E-02 6.66667E-03
 -1       270 4.81818E-02-1.00000E-02 1.33333E-02
 -1       271 4.13636E-02-1.00000E-02 6.66667E-03
 -1       272 4.13636E-02-1.00000E-02 1.33333E-02
 -1       273 3.45455E-02-1.00000E-02 6.66667E-03
 -1       274 3.45455E-02-1.00000E-02 1.33333E-02
 -1       275 2.77273E-02-1.00000E-02 6.66667E-03
 -1       276 2.77273E-02-1.00000E-02 1.33333E-02
 -1       277 2.09091E-02-1.00000E-02 6.66667E-03
 -1       278 2.09091E-02-1.00000E-02 1.33333E-02
 -1       279 1.40909E-02-1.00000E-02 6.66667E-03
 -1       280 1.40909E-02-1.00000E-02 1.33333E-02
 -1       281 7.27273E-03-1.00000E-02 6.66667E-03
 -1       282 7.27273E-03-1.00000E-02 1.33333E-02
 -1       283 4.54545E-04-1.00000E-02 6.66667E-03
 -1       284 4.54545E-04-1.00000E-02 1.33333E-02
 -1       285-6.36364E-03-1.00000E-02 6.66667E-03
 -1       286-6.36364E-03-1.00000E-02 1.33333E-02
 -1       287-1.31818E-02-1.00000E-02 6.66667E-03
 -1       288-1.31818E-02-1.00000E-02 1.33333E-02
 -1       289 4.81818E-02 6.66667E-03 0.00000E+00
 -1       290 4.13636E-02 6.66667E-03 0.00000E+00
 -1       291 3.45455E-02 6.66667E-03 0.00000E+00
 -1       292 2.77273E-02 6.66667E-03 0.00000E+00
 -1       293 2.09091E-02 6.66667E-03 0.00000E+00
 -1       294 1.40909E-02 6.66667E-03 0.00000E+00
 -1       295 7.27273E-03 6.66667E-03 0.00000E+00
 -1       296 4.54545E-04 6.66667E-03 0.00000E+00
 -1       297-6.36364E-03 6.66667E-03 0.00000E+00
 -1       298-1.31818E-02 6.66667E-03 0.00000E+00
 -1       299 4.81818E-02-1.66667E-03 0.00000E+00
 -1       300 4.13636E-02-1.66667E-03 0.00000E+00
 -1       301 3.45455E-02-1.66667E-03 0.00000E+00
 -1       302 2.77273E-02-1.66667E-03 0.00000E+00
 -1       303 2.09091E-02-1.66667E-03 0.00000E+00
 -1       304 1.40909E-02-1.66667E-03 0.00000E+00
 -1       305 7.27273E-03-1.66667E-03 0.00000E+00
 -1       306 4.54545E-04-1.66667E-03 0.00000E+00
 -1       307-6.36364E-03-1.66667E-03 0.00000E+00
 -1       308-1.31818E-02-1.66667E-03 0.00000E+00
 -1       309 4.81818E-02 6.66667E-03 2.00000E-02
 -1       310 4.13636E-02 6.66667E-03 2.00000E-02
 -1       311 3.45455E-02 6.66667E-03 2.00000E-02
 -1       312 2.77273E-02 6.66667E-03 2.00000E-02
 -1       313 2.09091E-02 6.66667E-03 2.00000E-02
 -1       314 1.40909E-02 6.66667E-03 2.00000E-02
 -1       315 7.27273E-03 6.66667E-03 2.00000E-02
 -1       316 4.54545E-04 6.66667E-03 2.00000E-02
 -1       317-6.36364E-03 6.66667E-03 2.00000E-02
 -1       318-1.31818E-02 6.66667E-03 2.00000E-02
 -1       319 4.81818E-02-1.66667E-03 2.00000E-02
 -1       320 4.13636E-02-1.66667E-03 2.00000E-02
 -1       321 3.45455E-02-1.66667E-03 2.00000E-02
 -1       322 2.77273E-02-1.66667E-03 2.00000E-02
 -1       323 2.09091E-02-1.66667E-03 2.00000E-02
 -1       324 1.40909E-02-1.66667E-03 2.00000E-02
 -1       325 7.27273E-03-1.66667E-03 2.00000E-02
 -1       326 4.54545E-04-1.66667E-03 2.00000E-02
 -1       327-6.36364E-03-1.66667E-03 2.00000E-02
 -1       328-1.31818E-02-1.66667E-03 2.00000E-02
 -1       329 5.50000E-02 6.66667E-03 6.66667E-03
 -1       330 5.50000E-02 6.66667E-03 1.33333E-02
 -1       331 5.50000E-02-1.66667E-03 6.66667E-03
 -1       332 5.50000E-02-1.66667E-03 1.33333E-02
 -1       333-2.00000E-02 6.66667E-03 6.66667E-03
 -1       334-2.00000E-02 6.66667E-03 1.33333E-02
 -1       335-2.00000E-02-1.66667E-03 6.66667E-03
 -1       336-2.00000E-02-1.66667E-03 1.33333E-02
 -1       337 8.57403E-02 2.88582E-02 1.33333E-02
 -1       338 8.57403E-02 2.88582E-02 6.66667E-03
 -1       339 9.06066E-02 2.56066E-02 1.33333E-02
 -1       340 9.06066E-02 2.56066E-02 6.66667E-03
 -1       341 9.38582E-02 2.07403E-02 1.33333E-02
 -1       342 9.38582E-02 2.07403E-02 6.66667E-03
 -1       343 8.95671E-02 3.80970E-02 1.33333E-02
 -1       344 8.95671E-02 3.80970E-02 6.66667E-03
 -1       345 9.76777E-02 3.26777E-02 1.33333E-02
 -1       346 9.76777E-02 3.26777E-02 6.66667E-03
 -1       347 1.03097E-01 2.45671E-02 1.33333E-02
 -1       348 1.03097E-01 2.45671E-02 6.66667E-03
 -1       349 8.76537E-02 3.34776E-02 2.00000E-02
 -1       350 9.41421E-02 2.91421E-02 2.00000E-02
 -1       351 9.84776E-02 2.26537E-02 2.00000E-02
 -1       352 8.76537E-02 3.34776E-02 0.00000E+00
 -1       353 9.41421E-02 2.91421E-02 0.00000E+00
 -1       354 9.84776E-02 2.26537E-02 0.00000E+00
 -1       355 8.00000E-02 3.50000E-02 1.33333E-02
 -1       356 8.00000E-02 3.50000E-02 6.66667E-03
 -1       357 1.00000E-01 1.50000E-02 1.33333E-02
 -1       358 1.00000E-01 1.50000E-02 6.66667E-03
 -1       359 8.57403E-02 1.14181E-03 6.66667E-03
 -1       360 8.57403E-02 1.14181E-03 1.33333E-02
 -1       361 9.06066E-02 4.39340E-03 6.66667E-03
 -1       362 9.06066E-02 4.39340E-03 1.33333E-02
 -1       363 9.38582E-02 9.25975E-03 6.66667E-03
 -1       364 9.38582E-02 9.25975E-03 1.33333E-02
 -1       365 8.95671E-02-8.09699E-03 6.66667E-03
 -1       366 8.95671E-02-8.09699E-03 1.33333E-02
 -1       367 9.76777E-02-2.67767E-03 6.66667E-03
 -1       368 9.76777E-02-2.67767E-03 1.33333E-02
 -1       369 1.03097E-01 5.43292E-03 6.66667E-03
 -1       370 1.03097E-01 5.43292E-03 1.33333E-02
 -1       371 8.76537E-02-3.47759E-03 0.00000E+00
 -1       372 9.41421E-02 8.57864E-04 0.00000E+00
 -1       373 9.84776E-02 7.34633E-03 0.00000E+00
 -1       374 8.76537E-02-3.47759E-03 2.00000E-02
 -1       375 9.41421E-02 8.57864E-04 2.00000E-02
 -1       376 9.84776E-02 7.34633E-03 2.00000E-02
 -1       377 8.00000E-02-5.00000E-03 6.66667E-03
 -1       378 8.00000E-02-5.00000E-03 1.33333E-02
 -1       379 6.00000E-02 1.50000E-02 6.66667E-03
 -1       380 6.00000E-02 1.50000E-02 1.33333E-02
 -1       381 6.13275E-02 7.56160E-03 2.00000E-02
 -1       382 6.43156E-02-6.69245E-04 2.00000E-02
 -1       383 7.25605E-02-3.63186E-03 2.00000E-02
 -1       384 6.13275E-02 7.56160E-03 0.00000E+00
 -1       385 6.43156E-02-6.69245E-04 0.00000E+00
 -1       386 7.25605E-02-3.63186E-03 0.00000E+00
 -1       387 6.61418E-02 9.25975E-03 6.66667E-03
 -1       388 6.93934E-02 4.39340E-03 6.66667E-03
 -1       389 6.61418E-02 9.25975E-03 1.33333E-02
 -1       390 6.93934E-02 4.39340E-03 1.33333E-02
 -1       391 7.42598E-02 1.14181E-03 6.66667E-03
 -1       392 7.42598E-02 1.14181E-03 1.33333E-02
 -1       393 6.33333E-02-1.00000E-02 6.66667E-03
 -1       394 6.33333E-02-1.00000E-02 1.33333E-02
 -1       395 7.16667E-02-1.00000E-02 6.66667E-03
 -1       396 7.16667E-02-1.00000E-02 1.33333E-02
 -1       397 6.13275E-02 2.24384E-02 2.00000E-02
 -1       398 6.43156E-02 3.06692E-02 2.00000E-02
 -1       399 7.25605E-02 3.36319E-02 2.00000E-02
 -1       400 6.13275E-02 2.24384E-02 0.00000E+00
 -1       401 6.43156E-02 3.06692E-02 0.00000E+00
 -1       402 7.25605E-02 3.36319E-02 0.00000E+00
 -1       403 6.61418E-02 2.07403E-02 6.66667E-03
 -1       404 6.61418E-02 2.07403E-02 1.33333E-02
 -1       405 6.93934E-02 2.56066E-02 6.66667E-03
 -1       406 6.93934E-02 2.56066E-02 1.33333E-02
 -1       407 7.42598E-02 2.88582E-02 6.66667E-03
 -1       408 7.42598E-02 2.88582E-02 1.33333E-02
 -1       409 6.33333E-02 4.00000E-02 1.33333E-02
 -1       410 6.33333E-02 4.00000E-02 6.66667E-03
 -1       411 7.16667E-02 4.00000E-02 6.66667E-03
 -1       412 7.16667E-02 4.00000E-02 1.33333E-02
 -1       413 4.81818E-02 2.33333E-02 6.66667E-03
 -1       414 4.81818E-02 2.33333E-02 1.33333E-02
 -1       415 4.13636E-02 2.33333E-02 6.66667E-03
 -1       416 4.13636E-02 2.33333E-02 1.33333E-02
 -1       417 3.45455E-02 2.33333E-02 6.66667E-03
 -1       418 3.45455E-02 2.33333E-02 1.33333E-02
 -1       419 2.77273E-02 2.33333E-02 6.66667E-03
 -1       420 2.77273E-02 2.33333E-02 1.33333E-02
 -1       421 2.09091E-02 2.33333E-02 6.66667E-03
 -1       422 2.09091E-02 2.33333E-02 1.33333E-02
 -1       423 1.40909E-02 2.33333E-02 6.66667E-03
 -1       424 1.40909E-02 2.33333E-02 1.33333E-02
 -1       425 7.27273E-03 2.33333E-02 6.66667E-03
 -1       426 7.27273E-03 2.33333E-02 1.33333E-02
 -1       427 4.54545E-04 2.33333E-02 6.66667E-03
 -1       428 4.54545E-04 2.33333E-02 1.33333E-02
 -1       429-6.36364E-03 2.33333E-02 6.66667E-03
 -1       430-6.36364E-03 2.33333E-02 1.33333E-02
 -1       431-1.31818E-02 2.33333E-02 6.66667E-03
 -1       432-1.31818E-02 2.33333E-02 1.33333E-02
 -1       433 4.81818E-02 3.16667E-02 6.66667E-03
 -1       434 4.81818E-02 3.16667E-02 1.33333E-02
 -1       435 4.13636E-02 3.16667E-02 6.66667E-03
 -1       436 4.13636E-02 3.16667E-02 1.33333E-02
 -1       437 3.45455E-02 3.16667E-02 6.66667E-03
 -1       438 3.45455E-02 3.16667E-02 1.33333E-02
 -1       439 2.77273E-02 3.16667E-02 6.66667E-03
 -1       440 2.77273E-02 3.16667E-02 1.33333E-02
 -1       441 2.09091E-02 3.16667E-02 6.66667E-03
 -1       442 2.09091E-02 3.16667E-02 1.33333E-02
 -1       443 1.40909E-02 3.16667E-02 6.66667E-03
 -1       444 1.40909E-02 3.16667E-02 1.33333E-02
 -1       445 7.27273E-03 3.16667E-02 6.66667E-03
 -1       446 7.27273E-03 3.16667E-02 1.33333E-02
 -1       447 4.54545E-04 3.16667E-02 6.66667E-03
 -1       448 4.54545E-04 3.16667E-02 1.33333E-02
 -1       449-6.36364E-03 3.16667E-02 6.66667E-03
 -1       450-6.36364E-03 3.16667E-02 1.33333E-02
 -1       451-1.31818E-02 3.16667E-02 6.66667E-03
 -1       452-1.31818E-02 3.16667E-02 1.33333E-02
 -1       453 4.81818E-02 6.66667E-03 6.66667E-03
 -1       454 4.81818E-02 6.66667E-03 1.33333E-02
 -1       455 4.13636E-02 6.66667E-03 6.66667E-03
 -1       456 4.13636E-02 6.66667E-03 1.33333E-02
 -1       457 3.45455E-02 6.66667E-03 6.66667E-03
 -1       458 3.45455E-02 6.66667E-03 1.33333E-02
 -1       459 2.77273E-02 6.66667E-03 6.66667E-03
 -1       460 2.77273E-02 6.66667E-03 1.33333E-02
 -1       461 2.09091E-02 6.66667E-03 6.66667E-03
 -1       462 2.09091E-02 6.66667E-03 1.33333E-02
 -1       463 1.40909E-02 6.66667E-03 6.66667E-03
 -1       464 1.40909E-02 6.66667E-03 1.33333E-02
 -1       465 7.27273E-03 6.66667E-03 6.66667E-03
 -1       466 7.27273E-03 6.66667E-03 1.33333E-02
 -1       467 4.54545E-04 6.66667E-03 6.66667E-03
 -1       468 4.54545E-04 6.66667E-03 1.33333E-02
 -1       469-6.36364E-03 6.66667E-03 6.66667E-03
 -1       470-6.36364E-03 6.66667E-03 1.33333E-02
 -1       471-1.31818E-02 6.66667E-03 6.66667E-03
 -1       472-1.31818E-02 6.66667E-03 1.33333E-02
 -1       473 4.81818E-02-1.66667E-03 6.66667E-03
 -1       474 4.81818E-02-1.66667E-03 1.33333E-02
 -1       475 4.13636E-02-1.66667E-03 6.66667E-03
 -1       476 4.13636E-02-1.66667E-03 1.33333E-02
 -1       477 3.45455E-02-1.66667E-03 6.66667E-03
 -1       478 3.45455E-02-1.66667E-03 1.33333E-02
 -1       479 2.77273E-02-1.66667E-03 6.66667E-03
 -1       480 2.77273E-02-1.66667E-03 1.33333E-02
 -1       481 2.09091E-02-1.66667E-03 6.66667E-03
 -1       482 2.09091E-02-1.66667E-03 1.33333E-02
 -1       483 1.40909E-02-1.66667E-03 6.66667E-03
 -1       484 1.40909E-02-1.66667E-03 1.33333E-02
 -1       485 7.27273E-03-1.66667E-03 6.66667E-03
 -1       486 7.27273E-03-1.66667E-03 1.33333E-02
 -1       487 4.54545E-04-1.66667E-03 6.66667E-03
 -1       488 4.54545E-04-1.66667E-03 1.33333E-02
 -1       489-6.36364E-03-1.66667E-03 6.66667E-03
 -1       490-6.36364E-03-1.66667E-03 1.33333E-02
 -1       491-1.31818E-02-1.66667E-03 6.66667E-03
 -1       492-1.31818E-02-1.66667E-03 1.33333E-02
 -1       493 8.76537E-02 3.34776E-02 1.33333E-02
 -1       494 8.76537E-02 3.34776E-02 6.66667E-03
 -1       495 9.41421E-02 2.91421E-02 1.33333E-02
 -1       496 9.41421E-02 2.91421E-02 6.66667E-03
 -1       497 9.84776E-02 2.26537E-02 1.33333E-02
 -1       498 9.84776E-02 2.26537E-02 6.66667E-03
 -1       499 8.76537E-02-3.47759E-03 6.66667E-03
 -1       500 8.76537E-02-3.47759E-03 1.33333E-02
 -1       501 9.41421E-02 8.57864E-04 6.66667E-03
 -1       502 9.41421E-02 8.57864E-04 1.33333E-02
 -1       503 9.84776E-02 7.34633E-03 6.66667E-03
 -1       504 9.84776E-02 7.34633E-03 1.33333E-02
 -1       505 6.43101E-02-6.86270E-04 6.66667E-03
 -1       506 6.43208E-02-6.75205E-04 1.33333E-02
 -1       507 6.13563E-02 7.55619E-03 6.66667E-03
 -1       508 7.25553E-02-3.63490E-03 6.66667E-03
 -1       509 6.13577E-02 7.56150E-03 1.33333E-02
 -1       510 7.25605E-02-3.63336E-03 1.33333E-02
 -1       511 6.43101E-02 3.06863E-02 1.33333E-02
 -1       512 6.13563E-02 2.24438E-02 1.33333E-02
 -1       513 6.43208E-02 3.06752E-02 6.66667E-03
 -1       514 7.25553E-02 3.36349E-02 1.33333E-02
 -1       515 6.13577E-02 2.24385E-02 6.66667E-03
 -1       516 7.25605E-02 3.36334E-02 6.66667E-03
 -1       517 5.15909E-02 2.33333E-02 0.00000E+00
 -1       518 4.81818E-02 2.33333E-02 3.33333E-03
 -1       519 5.15909E-02 2.33333E-02 6.66667E-03
 -1       520 5.50000E-02 2.33333E-02 3.33333E-03
 -1       521 5.50000E-02 1.50000E-02 3.33333E-03
 -1       522 5.15909E-02 1.50000E-02 6.66667E-03
 -1       523 4.81818E-02 1.50000E-02 3.33333E-03
 -1       524 5.15909E-02 1.50000E-02 0.00000E+00
 -1       525 5.50000E-02 1.91667E-02 6.66667E-03
 -1       526 5.50000E-02 1.91667E-02 0.00000E+00
 -1       527 4.81818E-02 1.91667E-02 6.66667E-03
 -1       528 4.81818E-02 1.91667E-02 0.00000E+00
 -1       529 4.81818E-02 2.33333E-02 1.00000E-02
 -1       530 5.15909E-02 2.33333E-02 1.33333E-02
 -1       531 5.50000E-02 2.33333E-02 1.00000E-02
 -1       532 5.50000E-02 1.50000E-02 1.00000E-02
 -1       533 5.15909E-02 1.50000E-02 1.33333E-02
 -1       534 4.81818E-02 1.50000E-02 1.00000E-02
 -1       535 5.50000E-02 1.91667E-02 1.33333E-02
 -1       536 4.81818E-02 1.91667E-02 1.33333E-02
 -1       537 4.81818E-02 2.33333E-02 1.66667E-02
 -1       538 5.15909E-02 2.33333E-02 2.00000E-02
 -1       539 5.50000E-02 2.33333E-02 1.66667E-02
 -1       540 5.50000E-02 1.50000E-02 1.66667E-02
 -1       541 5.15909E-02 1.50000E-02 2.00000E-02
 -1       542 4.81818E-02 1.50000E-02 1.66667E-02
 -1       543 5.50000E-02 1.91667E-02 2.00000E-02
 -1       544 4.81818E-02 1.91667E-02 2.00000E-02
 -1       545 4.47727E-02 2.33333E-02 0.00000E+00
 -1       546 4.13636E-02 2.33333E-02 3.33333E-03
 -1       547 4.47727E-02 2.33333E-02 6.66667E-03
 -1       548 4.47727E-02 1.50000E-02 6.66667E-03
 -1       549 4.13636E-02 1.50000E-02 3.33333E-03
 -1       550 4.47727E-02 1.50000E-02 0.00000E+00
 -1       551 4.13636E-02 1.91667E-02 6.66667E-03
 -1       552 4.13636E-02 1.91667E-02 0.00000E+00
 -1       553 4.13636E-02 2.33333E-02 1.00000E-02
 -1       554 4.47727E-02 2.33333E-02 1.33333E-02
 -1       555 4.47727E-02 1.50000E-02 1.33333E-02
 -1       556 4.13636E-02 1.50000E-02 1.00000E-02
 -1       557 4.13636E-02 1.91667E-02 1.33333E-02
 -1       558 4.13636E-02 2.33333E-02 1.66667E-02
 -1       559 4.47727E-02 2.33333E-02 2.00000E-02
 -1       560 4.47727E-02 1.50000E-02 2.00000E-02
 -1       561 4.13636E-02 1.50000E-02 1.66667E-02
 -1       562 4.13636E-02 1.91667E-02 2.00000E-02
 -1       563 3.79545E-02 2.33333E-02 0.00000E+00
 -1       564 3.45455E-02 2.33333E-02 3.33333E-03
 -1       565 3.79545E-02 2.33333E-02 6.66667E-03
 -1       566 3.79545E-02 1.50000E-02 6.66667E-03
 -1       567 3.45455E-02 1.50000E-02 3.33333E-03
 -1       568 3.79545E-02 1.50000E-02 0.00000E+00
 -1       569 3.45455E-02 1.91667E-02 6.66667E-03
 -1       570 3.45455E-02 1.91667E-02 0.00000E+00
 -1       571 3.45455E-02 2.33333E-02 1.00000E-02
 -1       572 3.79545E-02 2.33333E-02 1.33333E-02
 -1       573 3.79545E-02 1.50000E-02 1.33333E-02
 -1       574 3.45455E-02 1.50000E-02 1.00000E-02
 -1       575 3.45455E-02 1.91667E-02 1.33333E-02
 -1       576 3.45455E-02 2.33333E-02 1.66667E-02
 -1       577 3.79545E-02 2.33333E-02 2.00000E-02
 -1       578 3.79545E-02 1.50000E-02 2.00000E-02
 -1       579 3.45455E-02 1.50000E-02 1.66667E-02
 -1       580 3.45455E-02 1.91667E-02 2.00000E-02
 -1       581 3.11364E-02 2.33333E-02 0.00000E+00
 -1       582 2.77273E-02 2.33333E-02 3.33333E-03
 -1       583 3.11364E-02 2.33333E-02 6.66667E-03
 -1       584 3.11364E-02 1.50000E-02 6.66667E-03
 -1       585 2.77273E-02 1.50000E-02 3.33333E-03
 -1       586 3.11364E-02 1.50000E-02 0.00000E+00
 -1       587 2.77273E-02 1.91667E-02 6.66667E-03
 -1       588 2.77273E-02 1.91667E-02 0.00000E+00
 -1       589 2.77273E-02 2.33333E-02 1.00000E-02
 -1       590 3.11364E-02 2.33333E-02 1.33333E-02
 -1       591 3.11364E-02 1.50000E-02 1.33333E-02
 -1       592 2.77273E-02 1.50000E-02 1.00000E-02
 -1       593 2.77273E-02 1.91667E-02 1.33333E-02
 -1       594 2.77273E-02 2.33333E-02 1.66667E-02
 -1       595 3.11364E-02 2.33333E-02 2.00000E-02
 -1       596 3.11364E-02 1.50000E-02 2.00000E-02
 -1       597 2.77273E-02 1.50000E-02 1.66667E-02
 -1       598 2.77273E-02 1.91667E-02 2.00000E-02
 -1       599 2.43182E-02 2.33333E-02 0.00000E+00
 -1       600 2.09091E-02 2.33333E-02 3.33333E-03
 -1       601 2.43182E-02 2.33333E-02 6.66667E-03
 -1       602 2.43182E-02 1.50000E-02 6.66667E-03
 -1       603 2.09091E-02 1.50000E-02 3.33333E-03
 -1       604 2.43182E-02 1.50000E-02 0.00000E+00
 -1       605 2.09091E-02 1.91667E-02 6.66667E-03
 -1       606 2.09091E-02 1.91667E-02 0.00000E+00
 -1       607 2.09091E-02 2.33333E-02 1.00000E-02
 -1       608 2.43182E-02 2.33333E-02 1.33333E-02
 -1       609 2.43182E-02 1.50000E-02 1.33333E-02
 -1       610 2.09091E-02 1.50000E-02 1.00000E-02
 -1       611 2.09091E-02 1.91667E-02 1.33333E-02
 -1       612 2.09091E-02 2.33333E-02 1.66667E-02
 -1       613 2.43182E-02 2.33333E-02 2.00000E-02
 -1       614 2.43182E-02 1.50000E-02 2.00000E-02
 -1       615 2.09091E-02 1.50000E-02 1.66667E-02
 -1       616 2.09091E-02 1.91667E-02 2.00000E-02
 -1       617 1.75000E-02 2.33333E-02 0.00000E+00
 -1       618 1.40909E-02 2.33333E-02 3.33333E-03
 -1       619 1.75000E-02 2.33333E-02 6.66667E-03
 -1       620 1.75000E-02 1.50000E-02 6.66667E-03
 -1       621 1.40909E-02 1.50000E-02 3.33333E-03
 -1       622 1.75000E-02 1.50000E-02 0.00000E+00
 -1       623 1.40909E-02 1.91667E-02 6.66667E-03
 -1       624 1.40909E-02 1.91667E-02 0.00000E+00
 -1       625 1.40909E-02 2.33333E-02 1.00000E-02
 -1       626 1.75000E-02 2.33333E-02 1.33333E-02
 -1       627 1.75000E-02 1.50000E-02 1.33333E-02
 -1       628 1.40909E-02 1.50000E-02 1.00000E-02
 -1       629 1.40909E-02 1.91667E-02 1.33333E-02
 -1       630 1.40909E-02 2.33333E-02 1.66667E-02
 -1       631 1.75000E-02 2.33333E-02 2.00000E-02
 -1       632 1.75000E-02 1.50000E-02 2.00000E-02
 -1       633 1.40909E-02 1.50000E-02 1.66667E-02
 -1       634 1.40909E-02 1.91667E-02 2.00000E-02
 -1       635 1.06818E-02 2.33333E-02 0.00000E+00
 -1       636 7.27273E-03 2.33333E-02 3.33333E-03
 -1       637 1.06818E-02 2.33333E-02 6.66667E-03
 -1       638 1.06818E-02 1.50000E-02 6.66667E-03
 -1       639 7.27273E-03 1.50000E-02 3.33333E-03
 -1       640 1.06818E-02 1.50000E-02 0.00000E+00
 -1       641 7.27273E-03 1.91667E-02 6.66667E-03
 -1       642 7.27273E-03 1.91667E-02 0.00000E+00
 -1       643 7.27273E-03 2.33333E-02 1.00000E-02
 -1       644 1.06818E-02 2.33333E-02 1.33333E-02
 -1       645 1.06818E-02 1.50000E-02 1.33333E-02
 -1       646 7.27273E-03 1.50000E-02 1.00000E-02
 -1       647 7.27273E-03 1.91667E-02 1.33333E-02
 -1       648 7.27273E-03 2.33333E-02 1.66667E-02
 -1       649 1.06818E-02 2.33333E-02 2.00000E-02
 -1       650 1.06818E-02 1.50000E-02 2.00000E-02
 -1       651 7.27273E-03 1.50000E-02 1.66667E-02
 -1       652 7.27273E-03 1.91667E-02 2.00000E-02
 -1       653 3.86364E-03 2.33333E-02 0.00000E+00
 -1       654 4.54545E-04 2.33333E-02 3.33333E-03
 -1       655 3.86364E-03 2.33333E-02 6.66667E-03
 -1       656 3.86364E-03 1.50000E-02 6.66667E-03
 -1       657 4.54545E-04 1.50000E-02 3.33333E-03
 -1       658 3.86364E-03 1.50000E-02 0.00000E+00
 -1       659 4.54545E-04 1.91667E-02 6.66667E-03
 -1       660 4.54545E-04 1.91667E-02 0.00000E+00
 -1       661 4.54545E-04 2.33333E-02 1.00000E-02
 -1       662 3.86364E-03 2.33333E-02 1.33333E-02
 -1       663 3.86364E-03 1.50000E-02 1.33333E-02
 -1       664 4.54545E-04 1.50000E-02 1.00000E-02
 -1       665 4.54545E-04 1.91667E-02 1.33333E-02
 -1       666 4.54545E-04 2.33333E-02 1.66667E-02
 -1       667 3.86364E-03 2.33333E-02 2.00000E-02
 -1       668 3.86364E-03 1.50000E-02 2.00000E-02
 -1       669 4.54545E-04 1.50000E-02 1.66667E-02
 -1       670 4.54545E-04 1.91667E-02 2.00000E-02
 -1       671-2.95455E-03 2.33333E-02 0.00000E+00
 -1       672-6.36364E-03 2.33333E-02 3.33333E-03
 -1       673-2.95455E-03 2.33333E-02 6.66667E-03
 -1       674-2.95455E-03 1.50000E-02 6.66667E-03
 -1       675-6.36364E-03 1.50000E-02 3.33333E-03
 -1       676-2.95455E-03 1.50000E-02 0.00000E+00
 -1       677-6.36364E-03 1.91667E-02 6.66667E-03
 -1       678-6.36364E-03 1.91667E-02 0.00000E+00
 -1       679-6.36364E-03 2.33333E-02 1.00000E-02
 -1       680-2.95455E-03 2.33333E-02 1.33333E-02
 -1       681-2.95455E-03 1.50000E-02 1.33333E-02
 -1       682-6.36364E-03 1.50000E-02 1.00000E-02
 -1       683-6.36364E-03 1.91667E-02 1.33333E-02
 -1       684-6.36364E-03 2.33333E-02 1.66667E-02
 -1       685-2.95455E-03 2.33333E-02 2.00000E-02
 -1       686-2.95455E-03 1.50000E-02 2.00000E-02
 -1       687-6.36364E-03 1.50000E-02 1.66667E-02
 -1       688-6.36364E-03 1.91667E-02 2.00000E-02
 -1       689-9.77273E-03 2.33333E-02 0.00000E+00
 -1       690-1.31818E-02 2.33333E-02 3.33333E-03
 -1       691-9.77273E-03 2.33333E-02 6.66667E-03
 -1       692-9.77273E-03 1.50000E-02 6.66667E-03
 -1       693-1.31818E-02 1.50000E-02 3.33333E-03
 -1       694-9.77273E-03 1.50000E-02 0.00000E+00
 -1       695-1.31818E-02 1.91667E-02 6.66667E-03
 -1       696-1.31818E-02 1.91667E-02 0.00000E+00
 -1       697-1.31818E-02 2.33333E-02 1.00000E-02
 -1       698-9.77273E-03 2.33333E-02 1.33333E-02
 -1       699-9.77273E-03 1.50000E-02 1.33333E-02
 -1       700-1.31818E-02 1.50000E-02 1.00000E-02
 -1       701-1.31818E-02 1.91667E-02 1.33333E-02
 -1       702-1.31818E-02 2.33333E-02 1.66667E-02
 -1       703-9.77273E-03 2.33333E-02 2.00000E-02
 -1       704-9.77273E-03 1.50000E-02 2.00000E-02
 -1       705-1.31818E-02 1.50000E-02 1.66667E-02
 -1       706-1.31818E-02 1.91667E-02 2.00000E-02
 -1       707-1.65909E-02 2.33333E-02 0.00000E+00
 -1       708-2.00000E-02 2.33333E-02 3.33333E-03
 -1       709-1.65909E-02 2.33333E-02 6.66667E-03
 -1       710-1.65909E-02 1.50000E-02 6.66667E-03
 -1       711-2.00000E-02 1.50000E-02 3.33333E-03
 -1       712-1.65909E-02 1.50000E-02 0.00000E+00
 -1       713-2.00000E-02 1.91667E-02 6.66667E-03
 -1       714-2.00000E-02 1.91667E-02 0.00000E+00
 -1       715-2.00000E-02 2.33333E-02 1.00000E-02
 -1       716-1.65909E-02 2.33333E-02 1.33333E-02
 -1       717-1.65909E-02 1.50000E-02 1.33333E-02
 -1       718-2.00000E-02 1.50000E-02 1.00000E-02
 -1       719-2.00000E-02 1.91667E-02 1.33333E-02
 -1       720-2.00000E-02 2.33333E-02 1.66667E-02
 -1       721-1.65909E-02 2.33333E-02 2.00000E-02
 -1       722-1.65909E-02 1.50000E-02 2.00000E-02
 -1       723-2.00000E-02 1.50000E-02 1.66667E-02
 -1       724-2.00000E-02 1.91667E-02 2.00000E-02
 -1       725 5.15909E-02 3.16667E-02 0.00000E+00
 -1       726 4.81818E-02 3.16667E-02 3.33333E-03
 -1       727 5.15909E-02 3.16667E-02 6.66667E-03
 -1       728 5.50000E-02 3.16667E-02 3.33333E-03
 -1       729 5.50000E-02 2.75000E-02 6.66667E-03
 -1       730 5.50000E-02 2.75000E-02 0.00000E+00
 -1       731 4.81818E-02 2.75000E-02 6.66667E-03
 -1       732 4.81818E-02 2.75000E-02 0.00000E+00
 -1       733 4.81818E-02 3.16667E-02 1.00000E-02
 -1       734 5.15909E-02 3.16667E-02 1.33333E-02
 -1       735 5.50000E-02 3.16667E-02 1.00000E-02
 -1       736 5.50000E-02 2.75000E-02 1.33333E-02
 -1       737 4.81818E-02 2.75000E-02 1.33333E-02
 -1       738 4.81818E-02 3.16667E-02 1.66667E-02
 -1       739 5.15909E-02 3.16667E-02 2.00000E-02
 -1       740 5.50000E-02 3.16667E-02 1.66667E-02
 -1       741 5.50000E-02 2.75000E-02 2.00000E-02
 -1       742 4.81818E-02 2.75000E-02 2.00000E-02
 -1       743 4.47727E-02 3.16667E-02 0.00000E+00
 -1       744 4.13636E-02 3.16667E-02 3.33333E-03
 -1       745 4.47727E-02 3.16667E-02 6.66667E-03
 -1       746 4.13636E-02 2.75000E-02 6.66667E-03
 -1       747 4.13636E-02 2.75000E-02 0.00000E+00
 -1       748 4.13636E-02 3.16667E-02 1.00000E-02
 -1       749 4.47727E-02 3.16667E-02 1.33333E-02
 -1       750 4.13636E-02 2.75000E-02 1.33333E-02
 -1       751 4.13636E-02 3.16667E-02 1.66667E-02
 -1       752 4.47727E-02 3.16667E-02 2.00000E-02
 -1       753 4.13636E-02 2.75000E-02 2.00000E-02
 -1       754 3.79545E-02 3.16667E-02 0.00000E+00
 -1       755 3.45455E-02 3.16667E-02 3.33333E-03
 -1       756 3.79545E-02 3.16667E-02 6.66667E-03
 -1       757 3.45455E-02 2.75000E-02 6.66667E-03
 -1       758 3.45455E-02 2.75000E-02 0.00000E+00
 -1       759 3.45455E-02 3.16667E-02 1.00000E-02
 -1       760 3.79545E-02 3.16667E-02 1.33333E-02
 -1       761 3.45455E-02 2.75000E-02 1.33333E-02
 -1       762 3.45455E-02 3.16667E-02 1.66667E-02
 -1       763 3.79545E-02 3.16667E-02 2.00000E-02
 -1       764 3.45455E-02 2.75000E-02 2.00000E-02
 -1       765 3.11364E-02 3.16667E-02 0.00000E+00
 -1       766 2.77273E-02 3.16667E-02 3.33333E-03
 -1       767 3.11364E-02 3.16667E-02 6.66667E-03
 -1       768 2.77273E-02 2.75000E-02 6.66667E-03
 -1       769 2.77273E-02 2.75000E-02 0.00000E+00
 -1       770 2.77273E-02 3.16667E-02 1.00000E-02
 -1       771 3.11364E-02 3.16667E-02 1.33333E-02
 -1       772 2.77273E-02 2.75000E-02 1.33333E-02
 -1       773 2.77273E-02 3.16667E-02 1.66667E-02
 -1       774 3.11364E-02 3.16667E-02 2.00000E-02
 -1       775 2.77273E-02 2.75000E-02 2.00000E-02
 -1       776 2.43182E-02 3.16667E-02 0.00000E+00
 -1       777 2.09091E-02 3.16667E-02 3.33333E-03
 -1       778 2.43182E-02 3.16667E-02 6.66667E-03
 -1       779 2.09091E-02 2.75000E-02 6.66667E-03
 -1       780 2.09091E-02 2.75000E-02 0.00000E+00
 -1       781 2.09091E-02 3.16667E-02 1.00000E-02
 -1       782 2.43182E-02 3.16667E-02 1.33333E-02
 -1       783 2.09091E-02 2.75000E-02 1.33333E-02
 -1       784 2.09091E-02 3.16667E-02 1.66667E-02
 -1       785 2.43182E-02 3.16667E-02 2.00000E-02
 -1       786 2.09091E-02 2.75000E-02 2.00000E-02
 -1       787 1.75000E-02 3.16667E-02 0.00000E+00
 -1       788 1.40909E-02 3.16667E-02 3.33333E-03
 -1       789 1.75000E-02 3.16667E-02 6.66667E-03
 -1       790 1.40909E-02 2.75000E-02 6.66667E-03
 -1       791 1.40909E-02 2.75000E-02 0.00000E+00
 -1       792 1.40909E-02 3.16667E-02 1.00000E-02
 -1       793 1.75000E-02 3.16667E-02 1.33333E-02
 -1       794 1.40909E-02 2.75000E-02 1.33333E-02
 -1       795 1.40909E-02 3.16667E-02 1.66667E-02
 -1       796 1.75000E-02 3.16667E-02 2.00000E-02
 -1       797 1.40909E-02 2.75000E-02 2.00000E-02
 -1       798 1.06818E-02 3.16667E-02 0.00000E+00
 -1       799 7.27273E-03 3.16667E-02 3.33333E-03
 -1       800 1.06818E-02 3.16667E-02 6.66667E-03
 -1       801 7.27273E-03 2.75000E-02 6.66667E-03
 -1       802 7.27273E-03 2.75000E-02 0.00000E+00
 -1       803 7.27273E-03 3.16667E-02 1.00000E-02
 -1       804 1.06818E-02 3.16667E-02 1.33333E-02
 -1       805 7.27273E-03 2.75000E-02 1.33333E-02
 -1       806 7.27273E-03 3.16667E-02 1.66667E-02
 -1       807 1.06818E-02 3.16667E-02 2.00000E-02
 -1       808 7.27273E-03 2.75000E-02 2.00000E-02
 -1       809 3.86364E-03 3.16667E-02 0.00000E+00
 -1       810 4.54545E-04 3.16667E-02 3.33333E-03
 -1       811 3.86364E-03 3.16667E-02 6.66667E-03
 -1       812 4.54545E-04 2.75000E-02 6.66667E-03
 -1       813 4.54545E-04 2.75000E-02 0.00000E+00
 -1       814 4.54545E-04 3.16667E-02 1.00000E-02
 -1       815 3.86364E-03 3.16667E-02 1.33333E-02
 -1       816 4.54545E-04 2.75000E-02 1.33333E-02
 -1       817 4.54545E-04 3.16667E-02 1.66667E-02
 -1       818 3.86364E-03 3.16667E-02 2.00000E-02
 -1       819 4.54545E-04 2.75000E-02 2.00000E-02
 -1       820-2.95455E-03 3.16667E-02 0.00000E+00
 -1       821-6.36364E-03 3.16667E-02 3.33333E-03
 -1       822-2.95455E-03 3.16667E-02 6.66667E-03
 -1       823-6.36364E-03 2.75000E-02 6.66667E-03
 -1       824-6.36364E-03 2.75000E-02 0.00000E+00
 -1       825-6.36364E-03 3.16667E-02 1.00000E-02
 -1       826-2.95455E-03 3.16667E-02 1.33333E-02
 -1       827-6.36364E-03 2.75000E-02 1.33333E-02
 -1       828-6.36364E-03 3.16667E-02 1.66667E-02
 -1       829-2.95455E-03 3.16667E-02 2.00000E-02
 -1       830-6.36364E-03 2.75000E-02 2.00000E-02
 -1       831-9.77273E-03 3.16667E-02 0.00000E+00
 -1       832-1.31818E-02 3.16667E-02 3.33333E-03
 -1       833-9.77273E-03 3.16667E-02 6.66667E-03
 -1       834-1.31818E-02 2.75000E-02 6.66667E-03
 -1       835-1.31818E-02 2.75000E-02 0.00000E+00
 -1       836-1.31818E-02 3.16667E-02 1.00000E-02
 -1       837-9.77273E-03 3.16667E-02 1.33333E-02
 -1       838-1.31818E-02 2.75000E-02 1.33333E-02
 -1       839-1.31818E-02 3.16667E-02 1.66667E-02
 -1       840-9.77273E-03 3.16667E-02 2.00000E-02
 -1       841-1.31818E-02 2.75000E-02 2.00000E-02
 -1       842-1.65909E-02 3.16667E-02 0.00000E+00
 -1       843-2.00000E-02 3.16667E-02 3.33333E-03
 -1       844-1.65909E-02 3.16667E-02 6.66667E-03
 -1       845-2.00000E-02 2.75000E-02 6.66667E-03
 -1       846-2.00000E-02 2.75000E-02 0.00000E+00
 -1       847-2.00000E-02 3.16667E-02 1.00000E-02
 -1       848-1.65909E-02 3.16667E-02 1.33333E-02
 -1       849-2.00000E-02 2.75000E-02 1.33333E-02
 -1       850-2.00000E-02 3.16667E-02 1.66667E-02
 -1       851-1.65909E-02 3.16667E-02 2.00000E-02
 -1       852-2.00000E-02 2.75000E-02 2.00000E-02
 -1       853 5.15909E-02 4.00000E-02 0.00000E+00
 -1       854 4.81818E-02 4.00000E-02 3.33333E-03
 -1       855 5.15909E-02 4.00000E-02 6.66667E-03
 -1       856 5.50000E-02 4.00000E-02 3.33333E-03
 -1       857 5.50000E-02 3.58333E-02 6.66667E-03
 -1       858 5.50000E-02 3.58333E-02 0.00000E+00
 -1       859 4.81818E-02 3.58333E-02 6.66667E-03
 -1       860 4.81818E-02 3.58333E-02 0.00000E+00
 -1       861 4.81818E-02 4.00000E-02 1.00000E-02
 -1       862 5.15909E-02 4.00000E-02 1.33333E-02
 -1       863 5.50000E-02 4.00000E-02 1.00000E-02
 -1       864 5.50000E-02 3.58333E-02 1.33333E-02
 -1       865 4.81818E-02 3.58333E-02 1.33333E-02
 -1       866 4.81818E-02 4.00000E-02 1.66667E-02
 -1       867 5.15909E-02 4.00000E-02 2.00000E-02
 -1       868 5.50000E-02 4.00000E-02 1.66667E-02
 -1       869 5.50000E-02 3.58333E-02 2.00000E-02
 -1       870 4.81818E-02 3.58333E-02 2.00000E-02
 -1       871 4.47727E-02 4.00000E-02 0.00000E+00
 -1       872 4.13636E-02 4.00000E-02 3.33333E-03
 -1       873 4.47727E-02 4.00000E-02 6.66667E-03
 -1       874 4.13636E-02 3.58333E-02 6.66667E-03
 -1       875 4.13636E-02 3.58333E-02 0.00000E+00
 -1       876 4.13636E-02 4.00000E-02 1.00000E-02
 -1       877 4.47727E-02 4.00000E-02 1.33333E-02
 -1       878 4.13636E-02 3.58333E-02 1.33333E-02
 -1       879 4.13636E-02 4.00000E-02 1.66667E-02
 -1       880 4.47727E-02 4.00000E-02 2.00000E-02
 -1       881 4.13636E-02 3.58333E-02 2.00000E-02
 -1       882 3.79545E-02 4.00000E-02 0.00000E+00
 -1       883 3.45455E-02 4.00000E-02 3.33333E-03
 -1       884 3.79545E-02 4.00000E-02 6.66667E-03
 -1       885 3.45455E-02 3.58333E-02 6.66667E-03
 -1       886 3.45455E-02 3.58333E-02 0.00000E+00
 -1       887 3.45455E-02 4.00000E-02 1.00000E-02
 -1       888 3.79545E-02 4.00000E-02 1.33333E-02
 -1       889 3.45455E-02 3.58333E-02 1.33333E-02
 -1       890 3.45455E-02 4.00000E-02 1.66667E-02
 -1       891 3.79545E-02 4.00000E-02 2.00000E-02
 -1       892 3.45455E-02 3.58333E-02 2.00000E-02
 -1       893 3.11364E-02 4.00000E-02 0.00000E+00
 -1       894 2.77273E-02 4.00000E-02 3.33333E-03
 -1       895 3.11364E-02 4.00000E-02 6.66667E-03
 -1       896 2.77273E-02 3.58333E-02 6.66667E-03
 -1       897 2.77273E-02 3.58333E-02 0.00000E+00
 -1       898 2.77273E-02 4.00000E-02 1.00000E-02
 -1       899 3.11364E-02 4.00000E-02 1.33333E-02
 -1       900 2.77273E-02 3.58333E-02 1.33333E-02
 -1       901 2.77273E-02 4.00000E-02 1.66667E-02
 -1       902 3.11364E-02 4.00000E-02 2.00000E-02
 -1       903 2.77273E-02 3.58333E-02 2.00000E-02
 -1       904 2.43182E-02 4.00000E-02 0.00000E+00
 -1       905 2.09091E-02 4.00000E-02 3.33333E-03
 -1       906 2.43182E-02 4.00000E-02 6.66667E-03
 -1       907 2.09091E-02 3.58333E-02 6.66667E-03
 -1       908 2.09091E-02 3.58333E-02 0.00000E+00
 -1       909 2.09091E-02 4.00000E-02 1.00000E-02
 -1       910 2.43182E-02 4.00000E-02 1.33333E-02
 -1       911 2.09091E-02 3.58333E-02 1.33333E-02
 -1       912 2.09091E-02 4.00000E-02 1.66667E-02
 -1       913 2.43182E-02 4.00000E-02 2.00000E-02
 -1       914 2.09091E-02 3.58333E-02 2.00000E-02
 -1       915 1.75000E-02 4.00000E-02 0.00000E+00
 -1       916 1.40909E-02 4.00000E-02 3.33333E-03
 -1       917 1.75000E-02 4.00000E-02 6.66667E-03
 -1       918 1.40909E-02 3.58333E-02 6.66667E-03
 -1       919 1.40909E-02 3.58333E-02 0.00000E+00
 -1       920 1.40909E-02 4.00000E-02 1.00000E-02
 -1       921 1.75000E-02 4.00000E-02 1.33333E-02
 -1       922 1.40909E-02 3.58333E-02 1.33333E-02
 -1       923 1.40909E-02 4.00000E-02 1.66667E-02
 -1       924 1.75000E-02 4.00000E-02 2.00000E-02
 -1       925 1.40909E-02 3.58333E-02 2.00000E-02
 -1       926 1.06818E-02 4.00000E-02 0.00000E+00
 -1       927 7.27273E-03 4.00000E-02 3.33333E-03
 -1       928 1.06818E-02 4.00000E-02 6.66667E-03
 -1       929 7.27273E-03 3.58333E-02 6.66667E-03
 -1       930 7.27273E-03 3.58333E-02 0.00000E+00
 -1       931 7.27273E-03 4.00000E-02 1.00000E-02
 -1       932 1.06818E-02 4.00000E-02 1.33333E-02
 -1       933 7.27273E-03 3.58333E-02 1.33333E-02
 -1       934 7.27273E-03 4.00000E-02 1.66667E-02
 -1       935 1.06818E-02 4.00000E-02 2.00000E-02
 -1       936 7.27273E-03 3.58333E-02 2.00000E-02
 -1       937 3.86364E-03 4.00000E-02 0.00000E+00
 -1       938 4.54545E-04 4.00000E-02 3.33333E-03
 -1       939 3.86364E-03 4.00000E-02 6.66667E-03
 -1       940 4.54545E-04 3.58333E-02 6.66667E-03
 -1       941 4.54545E-04 3.58333E-02 0.00000E+00
 -1       942 4.54545E-04 4.00000E-02 1.00000E-02
 -1       943 3.86364E-03 4.00000E-02 1.33333E-02
 -1       944 4.54545E-04 3.58333E-02 1.33333E-02
 -1       945 4.54545E-04 4.00000E-02 1.66667E-02
 -1       946 3.86364E-03 4.00000E-02 2.00000E-02
 -1       947 4.54545E-04 3.58333E-02 2.00000E-02
 -1       948-2.95455E-03 4.00000E-02 0.00000E+00
 -1       949-6.36364E-03 4.00000E-02 3.33333E-03
 -1       950-2.95455E-03 4.00000E-02 6.66667E-03
 -1       951-6.36364E-03 3.58333E-02 6.66667E-03
 -1       952-6.36364E-03 3.58333E-02 0.00000E+00
 -1       953-6.36364E-03 4.00000E-02 1.00000E-02
 -1       954-2.95455E-03 4.00000E-02 1.33333E-02
 -1       955-6.36364E-03 3.58333E-02 1.33333E-02
 -1       956-6.36364E-03 4.00000E-02 1.66667E-02
 -1       957-2.95455E-03 4.00000E-02 2.00000E-02
 -1       958-6.36364E-03 3.58333E-02 2.00000E-02
 -1       959-9.77273E-03 4.00000E-02 0.00000E+00
 -1       960-1.31818E-02 4.00000E-02 3.33333E-03
 -1       961-9.77273E-03 4.00000E-02 6.66667E-03
 -1       962-1.31818E-02 3.58333E-02 6.66667E-03
 -1       963-1.31818E-02 3.58333E-02 0.00000E+00
 -1       964-1.31818E-02 4.00000E-02 1.00000E-02
 -1       965-9.77273E-03 4.00000E-02 1.33333E-02
 -1       966-1.31818E-02 3.58333E-02 1.33333E-02
 -1       967-1.31818E-02 4.00000E-02 1.66667E-02
 -1       968-9.77273E-03 4.00000E-02 2.00000E-02
 -1       969-1.31818E-02 3.58333E-02 2.00000E-02
 -1       970-1.65909E-02 4.00000E-02 0.00000E+00
 -1       971-2.00000E-02 4.00000E-02 3.33333E-03
 -1       972-1.65909E-02 4.00000E-02 6.66667E-03
 -1       973-2.00000E-02 3.58333E-02 6.66667E-03
 -1       974-2.00000E-02 3.58333E-02 0.00000E+00
 -1       975-2.00000E-02 4.00000E-02 1.00000E-02
 -1       976-1.65909E-02 4.00000E-02 1.33333E-02
 -1       977-2.00000E-02 3.58333E-02 1.33333E-02
 -1       978-2.00000E-02 4.00000E-02 1.66667E-02
 -1       979-1.65909E-02 4.00000E-02 2.00000E-02
 -1       980-2.00000E-02 3.58333E-02 2.00000E-02
 -1       981 5.50000E-02 6.66667E-03 3.33333E-03
 -1       982 5.15909E-02 6.66667E-03 6.66667E-03
 -1       983 4.81818E-02 6.66667E-03 3.33333E-03
 -1       984 5.15909E-02 6.66667E-03 0.00000E+00
 -1       985 5.50000E-02 1.08333E-02 6.66667E-03
 -1       986 5.50000E-02 1.08333E-02 0.00000E+00
 -1       987 4.81818E-02 1.08333E-02 6.66667E-03
 -1       988 4.81818E-02 1.08333E-02 0.00000E+00
 -1       989 5.50000E-02 6.66667E-03 1.00000E-02
 -1       990 5.15909E-02 6.66667E-03 1.33333E-02
 -1       991 4.81818E-02 6.66667E-03 1.00000E-02
 -1       992 5.50000E-02 1.08333E-02 1.33333E-02
 -1       993 4.81818E-02 1.08333E-02 1.33333E-02
 -1       994 5.50000E-02 6.66667E-03 1.66667E-02
 -1       995 5.15909E-02 6.66667E-03 2.00000E-02
 -1       996 4.81818E-02 6.66667E-03 1.66667E-02
 -1       997 5.50000E-02 1.08333E-02 2.00000E-02
 -1       998 4.81818E-02 1.08333E-02 2.00000E-02
 -1       999 4.47727E-02 6.66667E-03 6.66667E-03
 -1      1000 4.13636E-02 6.66667E-03 3.33333E-03
 -1      1001 4.47727E-02 6.66667E-03 0.00000E+00
 -1      1002 4.13636E-02 1.08333E-02 6.66667E-03
 -1      1003 4.13636E-02 1.08333E-02 0.00000E+00
 -1      1004 4.47727E-02 6.66667E-03 1.33333E-02
 -1      1005 4.13636E-02 6.66667E-03 1.00000E-02
 -1      1006 4.13636E-02 1.08333E-02 1.33333E-02
 -1      1007 4.47727E-02 6.66667E-03 2.00000E-02
 -1      1008 4.13636E-02 6.66667E-03 1.66667E-02
 -1      1009 4.13636E-02 1.08333E-02 2.00000E-02
 -1      1010 3.79545E-02 6.66667E-03 6.66667E-03
 -1      1011 3.45455E-02 6.66667E-03 3.33333E-03
 -1      1012 3.79545E-02 6.66667E-03 0.00000E+00
 -1      1013 3.45455E-02 1.08333E-02 6.66667E-03
 -1      1014 3.45455E-02 1.08333E-02 0.00000E+00
 -1      1015 3.79545E-02 6.66667E-03 1.33333E-02
 -1      1016 3.45455E-02 6.66667E-03 1.00000E-02
 -1      1017 3.45455E-02 1.08333E-02 1.33333E-02
 -1      1018 3.79545E-02 6.66667E-03 2.00000E-02
 -1      1019 3.45455E-02 6.66667E-03 1.66667E-02
 -1      1020 3.45455E-02 1.08333E-02 2.00000E-02
 -1      1021 3.11364E-02 6.66667E-03 6.66667E-03
 -1      1022 2.77273E-02 6.66667E-03 3.33333E-03
 -1      1023 3.11364E-02 6.66667E-03 0.00000E+00
 -1      1024 2.77273E-02 1.08333E-02 6.66667E-03
 -1      1025 2.77273E-02 1.08333E-02 0.00000E+00
 -1      1026 3.11364E-02 6.66667E-03 1.33333E-02
 -1      1027 2.77273E-02 6.66667E-03 1.00000E-02
 -1      1028 2.77273E-02 1.08333E-02 1.33333E-02
 -1      1029 3.11364E-02 6.66667E-03 2.00000E-02
 -1      1030 2.77273E-02 6.66667E-03 1.66667E-02
 -1      1031 2.77273E-02 1.08333E-02 2.00000E-02
 -1      1032 2.43182E-02 6.66667E-03 6.66667E-03
 -1      1033 2.09091E-02 6.66667E-03 3.33333E-03
 -1      1034 2.43182E-02 6.66667E-03 0.00000E+00
 -1      1035 2.09091E-02 1.08333E-02 6.66667E-03
 -1      1036 2.09091E-02 1.08333E-02 0.00000E+00
 -1      1037 2.43182E-02 6.66667E-03 1.33333E-02
 -1      1038 2.09091E-02 6.66667E-03 1.00000E-02
 -1      1039 2.09091E-02 1.08333E-02 1.33333E-02
 -1      1040 2.43182E-02 6.66667E-03 2.00000E-02
 -1      1041 2.09091E-02 6.66667E-03 1.66667E-02
 -1      1042 2.09091E-02 1.08333E-02 2.00000E-02
 -1      1043 1.75000E-02 6.66667E-03 6.66667E-03
 -1      1044 1.40909E-02 6.66667E-03 3.33333E-03
 -1      1045 1.75000E-02 6.66667E-03 0.00000E+00
 -1      1046 1.40909E-02 1.08333E-02 6.66667E-03
 -1      1047 1.40909E-02 1.08333E-02 0.00000E+00
 -1      1048 1.75000E-02 6.66667E-03 1.33333E-02
 -1      1049 1.40909E-02 6.66667E-03 1.00000E-02
 -1      1050 1.40909E-02 1.08333E-02 1.33333E-02
 -1      1051 1.75000E-02 6.66667E-03 2.00000E-02
 -1      1052 1.40909E-02 6.66667E-03 1.66667E-02
 -1      1053 1.40909E-02 1.08333E-02 2.00000E-02
 -1      1054 1.06818E-02 6.66667E-03 6.66667E-03
 -1      1055 7.27273E-03 6.66667E-03 3.33333E-03
 -1      1056 1.06818E-02 6.66667E-03 0.00000E+00
 -1      1057 7.27273E-03 1.08333E-02 6.66667E-03
 -1      1058 7.27273E-03 1.08333E-02 0.00000E+00
 -1      1059 1.06818E-02 6.66667E-03 1.33333E-02
 -1      1060 7.27273E-03 6.66667E-03 1.00000E-02
 -1      1061 7.27273E-03 1.08333E-02 1.33333E-02
 -1      1062 1.06818E-02 6.66667E-03 2.00000E-02
 -1      1063 7.27273E-03 6.66667E-03 1.66667E-02
 -1      1064 7.27273E-03 1.08333E-02 2.00000E-02
 -1      1065 3.86364E-03 6.66667E-03 6.66667E-03
 -1      1066 4.54545E-04 6.66667E-03 3.33333E-03
 -1      1067 3.86364E-03 6.66667E-03 0.00000E+00
 -1      1068 4.54545E-04 1.08333E-02 6.66667E-03
 -1      1069 4.54545E-04 1.08333E-02 0.00000E+00
 -1      1070 3.86364E-03 6.66667E-03 1.33333E-02
 -1      1071 4.54545E-04 6.66667E-03 1.00000E-02
 -1      1072 4.54545E-04 1.08333E-02 1.33333E-02
 -1      1073 3.86364E-03 6.66667E-03 2.00000E-02
 -1      1074 4.54545E-04 6.66667E-03 1.66667E-02
 -1      1075 4.54545E-04 1.08333E-02 2.00000E-02
 -1      1076-2.95455E-03 6.66667E-03 6.66667E-03
 -1      1077-6.36364E-03 6.66667E-03 3.33333E-03
 -1      1078-2.95455E-03 6.66667E-03 0.00000E+00
 -1      1079-6.36364E-03 1.08333E-02 6.66667E-03
 -1      1080-6.36364E-03 1.08333E-02 0.00000E+00
 -1      1081-2.95455E-03 6.66667E-03 1.33333E-02
 -1      1082-6.36364E-03 6.66667E-03 1.00000E-02
 -1      1083-6.36364E-03 1.08333E-02 1.33333E-02
 -1      1084-2.95455E-03 6.66667E-03 2.00000E-02
 -1      1085-6.36364E-03 6.66667E-03 1.66667E-02
 -1      1086-6.36364E-03 1.08333E-02 2.00000E-02
 -1      1087-9.77273E-03 6.66667E-03 6.66667E-03
 -1      1088-1.31818E-02 6.66667E-03 3.33333E-03
 -1      1089-9.77273E-03 6.66667E-03 0.00000E+00
 -1      1090-1.31818E-02 1.08333E-02 6.66667E-03
 -1      1091-1.31818E-02 1.08333E-02 0.00000E+00
 -1      1092-9.77273E-03 6.66667E-03 1.33333E-02
 -1      1093-1.31818E-02 6.66667E-03 1.00000E-02
 -1      1094-1.31818E-02 1.08333E-02 1.33333E-02
 -1      1095-9.77273E-03 6.66667E-03 2.00000E-02
 -1      1096-1.31818E-02 6.66667E-03 1.66667E-02
 -1      1097-1.31818E-02 1.08333E-02 2.00000E-02
 -1      1098-1.65909E-02 6.66667E-03 6.66667E-03
 -1      1099-2.00000E-02 6.66667E-03 3.33333E-03
 -1      1100-1.65909E-02 6.66667E-03 0.00000E+00
 -1      1101-2.00000E-02 1.08333E-02 6.66667E-03
 -1      1102-2.00000E-02 1.08333E-02 0.00000E+00
 -1      1103-1.65909E-02 6.66667E-03 1.33333E-02
 -1      1104-2.00000E-02 6.66667E-03 1.00000E-02
 -1      1105-2.00000E-02 1.08333E-02 1.33333E-02
 -1      1106-1.65909E-02 6.66667E-03 2.00000E-02
 -1      1107-2.00000E-02 6.66667E-03 1.66667E-02
 -1      1108-2.00000E-02 1.08333E-02 2.00000E-02
 -1      1109 5.50000E-02-1.66667E-03 3.33333E-03
 -1      1110 5.15909E-02-1.66667E-03 6.66667E-03
 -1      1111 4.81818E-02-1.66667E-03 3.33333E-03
 -1      1112 5.15909E-02-1.66667E-03 0.00000E+00
 -1      1113 5.50000E-02 2.50000E-03 6.66667E-03
 -1      1114 5.50000E-02 2.50000E-03 0.00000E+00
 -1      1115 4.81818E-02 2.50000E-03 6.66667E-03
 -1      1116 4.81818E-02 2.50000E-03 0.00000E+00
 -1      1117 5.50000E-02-1.66667E-03 1.00000E-02
 -1      1118 5.15909E-02-1.66667E-03 1.33333E-02
 -1      1119 4.81818E-02-1.66667E-03 1.00000E-02
 -1      1120 5.50000E-02 2.50000E-03 1.33333E-02
 -1      1121 4.81818E-02 2.50000E-03 1.33333E-02
 -1      1122 5.50000E-02-1.66667E-03 1.66667E-02
 -1      1123 5.15909E-02-1.66667E-03 2.00000E-02
 -1      1124 4.81818E-02-1.66667E-03 1.66667E-02
 -1      1125 5.50000E-02 2.50000E-03 2.00000E-02
 -1      1126 4.81818E-02 2.50000E-03 2.00000E-02
 -1      1127 4.47727E-02-1.66667E-03 6.66667E-03
 -1      1128 4.13636E-02-1.66667E-03 3.33333E-03
 -1      1129 4.47727E-02-1.66667E-03 0.00000E+00
 -1      1130 4.13636E-02 2.50000E-03 6.66667E-03
 -1      1131 4.13636E-02 2.50000E-03 0.00000E+00
 -1      1132 4.47727E-02-1.66667E-03 1.33333E-02
 -1      1133 4.13636E-02-1.66667E-03 1.00000E-02
 -1      1134 4.13636E-02 2.50000E-03 1.33333E-02
 -1      1135 4.47727E-02-1.66667E-03 2.00000E-02
 -1      1136 4.13636E-02-1.66667E-03 1.66667E-02
 -1      1137 4.13636E-02 2.50000E-03 2.00000E-02
 -1      1138 3.79545E-02-1.66667E-03 6.66667E-03
 -1      1139 3.45455E-02-1.66667E-03 3.33333E-03
 -1      1140 3.79545E-02-1.66667E-03 0.00000E+00
 -1      1141 3.45455E-02 2.50000E-03 6.66667E-03
 -1      1142 3.45455E-02 2.50000E-03 0.00000E+00
 -1      1143 3.79545E-02-1.66667E-03 1.33333E-02
 -1      1144 3.45455E-02-1.66667E-03 1.00000E-02
 -1      1145 3.45455E-02 2.50000E-03 1.33333E-02
 -1      1146 3.79545E-02-1.66667E-03 2.00000E-02
 -1      1147 3.45455E-02-1.66667E-03 1.66667E-02
 -1      1148 3.45455E-02 2.50000E-03 2.00000E-02
 -1      1149 3.11364E-02-1.66667E-03 6.66667E-03
 -1      1150 2.77273E-02-1.66667E-03 3.33333E-03
 -1      1151 3.11364E-02-1.66667E-03 0.00000E+00
 -1      1152 2.77273E-02 2.50000E-03 6.66667E-03
 -1      1153 2.77273E-02 2.50000E-03 0.00000E+00
 -1      1154 3.11364E-02-1.66667E-03 1.33333E-02
 -1      1155 2.77273E-02-1.66667E-03 1.00000E-02
 -1      1156 2.77273E-02 2.50000E-03 1.33333E-02
 -1      1157 3.11364E-02-1.66667E-03 2.00000E-02
 -1      1158 2.77273E-02-1.66667E-03 1.66667E-02
 -1      1159 2.77273E-02 2.50000E-03 2.00000E-02
 -1      1160 2.43182E-02-1.66667E-03 6.66667E-03
 -1      1161 2.09091E-02-1.66667E-03 3.33333E-03
 -1      1162 2.43182E-02-1.66667E-03 0.00000E+00
 -1      1163 2.09091E-02 2.50000E-03 6.66667E-03
 -1      1164 2.09091E-02 2.50000E-03 0.00000E+00
 -1      1165 2.43182E-02-1.66667E-03 1.33333E-02
 -1      1166 2.09091E-02-1.66667E-03 1.00000E-02
 -1      1167 2.09091E-02 2.50000E-03 1.33333E-02
 -1      1168 2.43182E-02-1.66667E-03 2.00000E-02
 -1      1169 2.09091E-02-1.66667E-03 1.66667E-02
 -1      1170 2.09091E-02 2.50000E-03 2.00000E-02
 -1      1171 1.75000E-02-1.66667E-03 6.66667E-03
 -1      1172 1.40909E-02-1.66667E-03 3.33333E-03
 -1      1173 1.75000E-02-1.66667E-03 0.00000E+00
 -1      1174 1.40909E-02 2.50000E-03 6.66667E-03
 -1      1175 1.40909E-02 2.50000E-03 0.00000E+00
 -1      1176 1.75000E-02-1.66667E-03 1.33333E-02
 -1      1177 1.40909E-02-1.66667E-03 1.00000E-02
 -1      1178 1.40909E-02 2.50000E-03 1.33333E-02
 -1      1179 1.75000E-02-1.66667E-03 2.00000E-02
 -1      1180 1.40909E-02-1.66667E-03 1.66667E-02
 -1      1181 1.40909E-02 2.50000E-03 2.00000E-02
 -1      1182 1.06818E-02-1.66667E-03 6.66667E-03
 -1      1183 7.27273E-03-1.66667E-03 3.33333E-03
 -1      1184 1.06818E-02-1.66667E-03 0.00000E+00
 -1      1185 7.27273E-03 2.50000E-03 6.66667E-03
 -1      1186 7.27273E-03 2.50000E-03 0.00000E+00
 -1      1187 1.06818E-02-1.66667E-03 1.33333E-02
 -1      1188 7.27273E-03-1.66667E-03 1.00000E-02
 -1      1189 7.27273E-03 2.50000E-03 1.33333E-02
 -1      1190 1.06818E-02-1.66667E-03 2.00000E-02
 -1      1191 7.27273E-03-1.66667E-03 1.66667E-02
 -1      1192 7.27273E-03 2.50000E-03 2.00000E-02
 -1      1193 3.86364E-03-1.66667E-03 6.66667E-03
 -1      1194 4.54545E-04-1.66667E-03 3.33333E-03
 -1      1195 3.86364E-03-1.66667E-03 0.00000E+00
 -1      1196 4.54545E-04 2.50000E-03 6.66667E-03
 -1      1197 4.54545E-04 2.50000E-03 0.00000E+00
 -1      1198 3.86364E-03-1.66667E-03 1.33333E-02
 -1      1199 4.54545E-04-1.66667E-03 1.00000E-02
 -1      1200 4.54545E-04 2.50000E-03 1.33333E-02
 -1      1201 3.86364E-03-1.66667E-03 2.00000E-02
 -1      1202 4.54545E-04-1.66667E-03 1.66667E-02
 -1      1203 4.54545E-04 2.50000E-03 2.00000E-02
 -1      1204-2.95455E-03-1.66667E-03 6.66667E-03
 -1      1205-6.36364E-03-1.66667E-03 3.33333E-03
 -1      1206-2.95455E-03-1.66667E-03 0.00000E+00
 -1      1207-6.36364E-03 2.50000E-03 6.66667E-03
 -1      1208-6.36364E-03 2.50000E-03 0.00000E+00
 -1      1209-2.95455E-03-1.66667E-03 1.33333E-02
 -1      1210-6.36364E-03-1.66667E-03 1.00000E-02
 -1      1211-6.36364E-03 2.50000E-03 1.33333E-02
 -1      1212-2.95455E-03-1.66667E-03 2.00000E-02
 -1      1213-6.36364E-03-1.66667E-03 1.66667E-02
 -1      1214-6.36364E-03 2.50000E-03 2.00000E-02
 -1      1215-9.77273E-03-1.66667E-03 6.66667E-03
 -1      1216-1.31818E-02-1.66667E-03 3.33333E-03
 -1      1217-9.77273E-03-1.66667E-03 0.00000E+00
 -1      1218-1.31818E-02 2.50000E-03 6.66667E-03
 -1      1219-1.31818E-02 2.50000E-03 0.00000E+00
 -1      1220-9.77273E-03-1.66667E-03 1.33333E-02
 -1      1221-1.31818E-02-1.66667E-03 1.00000E-02
 -1      1222-1.31818E-02 2.50000E-03 1.33333E-02
 -1      1223-9.77273E-03-1.66667E-03 2.00000E-02
 -1      1224-1.31818E-02-1.66667E-03 1.66667E-02
 -1      1225-1.31818E-02 2.50000E-03 2.00000E-02
 -1      1226-1.65909E-02-1.66667E-03 6.66667E-03
 -1      1227-2.00000E-02-1.66667E-03 3.33333E-03
 -1      1228-1.65909E-02-1.66667E-03 0.00000E+00
 -1      1229-2.00000E-02 2.50000E-03 6.66667E-03
 -1      1230-2.00000E-02 2.50000E-03 0.00000E+00
 -1      1231-1.65909E-02-1.66667E-03 1.33333E-02
 -1      1232-2.00000E-02-1.66667E-03 1.00000E-02
 -1      1233-2.00000E-02 2.50000E-03 1.33333E-02
 -1      1234-1.65909E-02-1.66667E-03 2.00000E-02
 -1      1235-2.00000E-02-1.66667E-03 1.66667E-02
 -1      1236-2.00000E-02 2.50000E-03 2.00000E-02
 -1      1237 5.50000E-02-1.00000E-02 3.33333E-03
 -1      1238 5.15909E-02-1.00000E-02 6.66667E-03
 -1      1239 4.81818E-02-1.00000E-02 3.33333E-03
 -1      1240 5.15909E-02-1.00000E-02 0.00000E+00
 -1      1241 5.50000E-02-5.83333E-03 6.66667E-03
 -1      1242 5.50000E-02-5.83333E-03 0.00000E+00
 -1      1243 4.81818E-02-5.83333E-03 6.66667E-03
 -1      1244 4.81818E-02-5.83333E-03 0.00000E+00
 -1      1245 5.50000E-02-1.00000E-02 1.00000E-02
 -1      1246 5.15909E-02-1.00000E-02 1.33333E-02
 -1      1247 4.81818E-02-1.00000E-02 1.00000E-02
 -1      1248 5.50000E-02-5.83333E-03 1.33333E-02
 -1      1249 4.81818E-02-5.83333E-03 1.33333E-02
 -1      1250 5.50000E-02-1.00000E-02 1.66667E-02
 -1      1251 5.15909E-02-1.00000E-02 2.00000E-02
 -1      1252 4.81818E-02-1.00000E-02 1.66667E-02
 -1      1253 5.50000E-02-5.83333E-03 2.00000E-02
 -1      1254 4.81818E-02-5.83333E-03 2.00000E-02
 -1      1255 4.47727E-02-1.00000E-02 6.66667E-03
 -1      1256 4.13636E-02-1.00000E-02 3.33333E-03
 -1      1257 4.47727E-02-1.00000E-02 0.00000E+00
 -1      1258 4.13636E-02-5.83333E-03 6.66667E-03
 -1      1259 4.13636E-02-5.83333E-03 0.00000E+00
 -1      1260 4.47727E-02-1.00000E-02 1.33333E-02
 -1      1261 4.13636E-02-1.00000E-02 1.00000E-02
 -1      1262 4.13636E-02-5.83333E-03 1.33333E-02
 -1      1263 4.47727E-02-1.00000E-02 2.00000E-02
 -1      1264 4.13636E-02-1.00000E-02 1.66667E-02
 -1      1265 4.13636E-02-5.83333E-03 2.00000E-02
 -1      1266 3.79545E-02-1.00000E-02 6.66667E-03
 -1      1267 3.45455E-02-1.00000E-02 3.33333E-03
 -1      1268 3.79545E-02-1.00000E-02 0.00000E+00
 -1      1269 3.45455E-02-5.83333E-03 6.66667E-03
 -1      1270 3.45455E-02-5.83333E-03 0.00000E+00
 -1      1271 3.79545E-02-1.00000E-02 1.33333E-02
 -1      1272 3.45455E-02-1.00000E-02 1.00000E-02
 -1      1273 3.45455E-02-5.83333E-03 1.33333E-02
 -1      1274 3.79545E-02-1.00000E-02 2.00000E-02
 -1      1275 3.45455E-02-1.00000E-02 1.66667E-02
 -1      1276 3.45455E-02-5.83333E-03 2.00000E-02
 -1      1277 3.11364E-02-1.00000E-02 6.66667E-03
 -1      1278 2.77273E-02-1.00000E-02 3.33333E-03
 -1      1279 3.11364E-02-1.00000E-02 0.00000E+00
 -1      1280 2.77273E-02-5.83333E-03 6.66667E-03
 -1      1281 2.77273E-02-5.83333E-03 0.00000E+00
 -1      1282 3.11364E-02-1.00000E-02 1.33333E-02
 -1      1283 2.77273E-02-1.00000E-02 1.00000E-02
 -1      1284 2.77273E-02-5.83333E-03 1.33333E-02
 -1      1285 3.11364E-02-1.00000E-02 2.00000E-02
 -1      1286 2.77273E-02-1.00000E-02 1.66667E-02
 -1      1287 2.77273E-02-5.83333E-03 2.00000E-02
 -1      1288 2.43182E-02-1.00000E-02 6.66667E-03
 -1      1289 2.09091E-02-1.00000E-02 3.33333E-03
 -1      1290 2.43182E-02-1.00000E-02 0.00000E+00
 -1      1291 2.09091E-02-5.83333E-03 6.66667E-03
 -1      1292 2.09091E-02-5.83333E-03 0.00000E+00
 -1      1293 2.43182E-02-1.00000E-02 1.33333E-02
 -1      1294 2.09091E-02-1.00000E-02 1.00000E-02
 -1      1295 2.09091E-02-5.83333E-03 1.33333E-02
 -1      1296 2.43182E-02-1.00000E-02 2.00000E-02
 -1      1297 2.09091E-02-1.00000E-02 1.66667E-02
 -1      1298 2.09091E-02-5.83333E-03 2.00000E-02
 -1      1299 1.75000E-02-1.00000E-02 6.66667E-03
 -1      1300 1.40909E-02-1.00000E-02 3.33333E-03
 -1      1301 1.75000E-02-1.00000E-02 0.00000E+00
 -1      1302 1.40909E-02-5.83333E-03 6.66667E-03
 -1      1303 1.40909E-02-5.83333E-03 0.00000E+00
 -1      1304 1.75000E-02-1.00000E-02 1.33333E-02
 -1      1305 1.40909E-02-1.00000E-02 1.00000E-02
 -1      1306 1.40909E-02-5.83333E-03 1.33333E-02
 -1      1307 1.75000E-02-1.00000E-02 2.00000E-02
 -1      1308 1.40909E-02-1.00000E-02 1.66667E-02
 -1      1309 1.40909E-02-5.83333E-03 2.00000E-02
 -1      1310 1.06818E-02-1.00000E-02 6.66667E-03
 -1      1311 7.27273E-03-1.00000E-02 3.33333E-03
 -1      1312 1.06818E-02-1.00000E-02 0.00000E+00
 -1      1313 7.27273E-03-5.83333E-03 6.66667E-03
 -1      1314 7.27273E-03-5.83333E-03 0.00000E+00
 -1      1315 1.06818E-02-1.00000E-02 1.33333E-02
 -1      1316 7.27273E-03-1.00000E-02 1.00000E-02
 -1      1317 7.27273E-03-5.83333E-03 1.33333E-02
 -1      1318 1.06818E-02-1.00000E-02 2.00000E-02
 -1      1319 7.27273E-03-1.00000E-02 1.66667E-02
 -1      1320 7.27273E-03-5.83333E-03 2.00000E-02
 -1      1321 3.86364E-03-1.00000E-02 6.66667E-03
 -1      1322 4.54545E-04-1.00000E-02 3.33333E-03
 -1      1323 3.86364E-03-1.00000E-02 0.00000E+00
 -1      1324 4.54545E-04-5.83333E-03 6.66667E-03
 -1      1325 4.54545E-04-5.83333E-03 0.00000E+00
 -1      1326 3.86364E-03-1.00000E-02 1.33333E-02
 -1      1327 4.54545E-04-1.00000E-02 1.00000E-02
 -1      1328 4.54545E-04-5.83333E-03 1.33333E-02
 -1      1329 3.86364E-03-1.00000E-02 2.00000E-02
 -1      1330 4.54545E-04-1.00000E-02 1.66667E-02
 -1      1331 4.54545E-04-5.83333E-03 2.00000E-02
 -1      1332-2.95455E-03-1.00000E-02 6.66667E-03
 -1      1333-6.36364E-03-1.00000E-02 3.33333E-03
 -1      1334-2.95455E-03-1.00000E-02 0.00000E+00
 -1      1335-6.36364E-03-5.83333E-03 6.66667E-03
 -1      1336-6.36364E-03-5.83333E-03 0.00000E+00
 -1      1337-2.95455E-03-1.00000E-02 1.33333E-02
 -1      1338-6.36364E-03-1.00000E-02 1.00000E-02
 -1      1339-6.36364E-03-5.83333E-03 1.33333E-02
 -1      1340-2.95455E-03-1.00000E-02 2.00000E-02
 -1      1341-6.36364E-03-1.00000E-02 1.66667E-02
 -1      1342-6.36364E-03-5.83333E-03 2.00000E-02
 -1      1343-9.77273E-03-1.00000E-02 6.66667E-03
 -1      1344-1.31818E-02-1.00000E-02 3.33333E-03
 -1      1345-9.77273E-03-1.00000E-02 0.00000E+00
 -1      1346-1.31818E-02-5.83333E-03 6.66667E-03
 -1      1347-1.31818E-02-5.83333E-03 0.00000E+00
 -1      1348-9.77273E-03-1.00000E-02 1.33333E-02
 -1      1349-1.31818E-02-1.00000E-02 1.00000E-02
 -1      1350-1.31818E-02-5.83333E-03 1.33333E-02
 -1      1351-9.77273E-03-1.00000E-02 2.00000E-02
 -1      1352-1.31818E-02-1.00000E-02 1.66667E-02
 -1      1353-1.31818E-02-5.83333E-03 2.00000E-02
 -1      1354-1.65909E-02-1.00000E-02 6.66667E-03
 -1      1355-2.00000E-02-1.00000E-02 3.33333E-03
 -1      1356-1.65909E-02-1.00000E-02 0.00000E+00
 -1      1357-2.00000E-02-5.83333E-03 6.66667E-03
 -1      1358-2.00000E-02-5.83333E-03 0.00000E+00
 -1      1359-1.65909E-02-1.00000E-02 1.33333E-02
 -1      1360-2.00000E-02-1.00000E-02 1.00000E-02
 -1      1361-2.00000E-02-5.83333E-03 1.33333E-02
 -1      1362-1.65909E-02-1.00000E-02 2.00000E-02
 -1      1363-2.00000E-02-1.00000E-02 1.66667E-02
 -1      1364-2.00000E-02-5.83333E-03 2.00000E-02
 -1      1365 8.38268E-02 3.42388E-02 2.00000E-02
 -1      1366 8.76537E-02 3.34776E-02 1.66667E-02
 -1      1367 8.38268E-02 3.42388E-02 1.33333E-02
 -1      1368 8.00000E-02 3.50000E-02 1.66667E-02
 -1      1369 8.00000E-02 3.00000E-02 1.66667E-02
 -1      1370 8.29264E-02 2.97118E-02 1.33333E-02
 -1      1371 8.57403E-02 2.88582E-02 1.66667E-02
 -1      1372 8.29264E-02 2.97118E-02 2.00000E-02
 -1      1373 8.00000E-02 3.25000E-02 1.33333E-02
 -1      1374 8.00000E-02 3.25000E-02 2.00000E-02
 -1      1375 8.66970E-02 3.11679E-02 1.33333E-02
 -1      1376 8.66970E-02 3.11679E-02 2.00000E-02
 -1      1377 8.76537E-02 3.34776E-02 1.00000E-02
 -1      1378 8.38268E-02 3.42388E-02 6.66667E-03
 -1      1379 8.00000E-02 3.50000E-02 1.00000E-02
 -1      1380 8.00000E-02 3.00000E-02 1.00000E-02
 -1      1381 8.29264E-02 2.97118E-02 6.66667E-03
 -1      1382 8.57403E-02 2.88582E-02 1.00000E-02
 -1      1383 8.00000E-02 3.25000E-02 6.66667E-03
 -1      1384 8.66970E-02 3.11679E-02 6.66667E-03
 -1      1385 8.76537E-02 3.34776E-02 3.33333E-03
 -1      1386 8.38268E-02 3.42388E-02 0.00000E+00
 -1      1387 8.00000E-02 3.50000E-02 3.33333E-03
 -1      1388 8.00000E-02 3.00000E-02 3.33333E-03
 -1      1389 8.29264E-02 2.97118E-02 0.00000E+00
 -1      1390 8.57403E-02 2.88582E-02 3.33333E-03
 -1      1391 8.00000E-02 3.25000E-02 0.00000E+00
 -1      1392 8.66970E-02 3.11679E-02 0.00000E+00
 -1      1393 9.08979E-02 3.13099E-02 2.00000E-02
 -1      1394 9.41421E-02 2.91421E-02 1.66667E-02
 -1      1395 9.08979E-02 3.13099E-02 1.33333E-02
 -1      1396 8.83336E-02 2.74720E-02 1.33333E-02
 -1      1397 9.06066E-02 2.56066E-02 1.66667E-02
 -1      1398 8.83336E-02 2.74720E-02 2.00000E-02
 -1      1399 9.23744E-02 2.73744E-02 1.33333E-02
 -1      1400 9.23744E-02 2.73744E-02 2.00000E-02
 -1      1401 9.41421E-02 2.91421E-02 1.00000E-02
 -1      1402 9.08979E-02 3.13099E-02 6.66667E-03
 -1      1403 8.83336E-02 2.74720E-02 6.66667E-03
 -1      1404 9.06066E-02 2.56066E-02 1.00000E-02
 -1      1405 9.23744E-02 2.73744E-02 6.66667E-03
 -1      1406 9.41421E-02 2.91421E-02 3.33333E-03
 -1      1407 9.08979E-02 3.13099E-02 0.00000E+00
 -1      1408 8.83336E-02 2.74720E-02 0.00000E+00
 -1      1409 9.06066E-02 2.56066E-02 3.33333E-03
 -1      1410 9.23744E-02 2.73744E-02 0.00000E+00
 -1      1411 9.63099E-02 2.58979E-02 2.00000E-02
 -1      1412 9.84776E-02 2.26537E-02 1.66667E-02
 -1      1413 9.63099E-02 2.58979E-02 1.33333E-02
 -1      1414 9.24720E-02 2.33336E-02 1.33333E-02
 -1      1415 9.38582E-02 2.07403E-02 1.66667E-02
 -1      1416 9.24720E-02 2.33336E-02 2.00000E-02
 -1      1417 9.61679E-02 2.16970E-02 1.33333E-02
 -1      1418 9.61679E-02 2.16970E-02 2.00000E-02
 -1      1419 9.84776E-02 2.26537E-02 1.00000E-02
 -1      1420 9.63099E-02 2.58979E-02 6.66667E-03
 -1      1421 9.24720E-02 2.33336E-02 6.66667E-03
 -1      1422 9.38582E-02 2.07403E-02 1.00000E-02
 -1      1423 9.61679E-02 2.16970E-02 6.66667E-03
 -1      1424 9.84776E-02 2.26537E-02 3.33333E-03
 -1      1425 9.63099E-02 2.58979E-02 0.00000E+00
 -1      1426 9.24720E-02 2.33336E-02 0.00000E+00
 -1      1427 9.38582E-02 2.07403E-02 3.33333E-03
 -1      1428 9.61679E-02 2.16970E-02 0.00000E+00
 -1      1429 9.92388E-02 1.88268E-02 2.00000E-02
 -1      1430 1.00000E-01 1.50000E-02 1.66667E-02
 -1      1431 9.92388E-02 1.88268E-02 1.33333E-02
 -1      1432 9.47118E-02 1.79264E-02 1.33333E-02
 -1      1433 9.50000E-02 1.50000E-02 1.66667E-02
 -1      1434 9.47118E-02 1.79264E-02 2.00000E-02
 -1      1435 9.75000E-02 1.50000E-02 1.33333E-02
 -1      1436 9.75000E-02 1.50000E-02 2.00000E-02
 -1      1437 1.00000E-01 1.50000E-02 1.00000E-02
 -1      1438 9.92388E-02 1.88268E-02 6.66667E-03
 -1      1439 9.47118E-02 1.79264E-02 6.66667E-03
 -1      1440 9.50000E-02 1.50000E-02 1.00000E-02
 -1      1441 9.75000E-02 1.50000E-02 6.66667E-03
 -1      1442 1.00000E-01 1.50000E-02 3.33333E-03
 -1      1443 9.92388E-02 1.88268E-02 0.00000E+00
 -1      1444 9.47118E-02 1.79264E-02 0.00000E+00
 -1      1445 9.50000E-02 1.50000E-02 3.33333E-03
 -1      1446 9.75000E-02 1.50000E-02 0.00000E+00
 -1      1447 8.48773E-02 3.95196E-02 2.00000E-02
 -1      1448 8.95671E-02 3.80970E-02 1.66667E-02
 -1      1449 8.48773E-02 3.95196E-02 1.33333E-02
 -1      1450 8.00000E-02 4.00000E-02 1.66667E-02
 -1      1451 8.00000E-02 3.75000E-02 1.33333E-02
 -1      1452 8.00000E-02 3.75000E-02 2.00000E-02
 -1      1453 8.86104E-02 3.57873E-02 1.33333E-02
 -1      1454 8.86104E-02 3.57873E-02 2.00000E-02
 -1      1455 8.95671E-02 3.80970E-02 1.00000E-02
 -1      1456 8.48773E-02 3.95196E-02 6.66667E-03
 -1      1457 8.00000E-02 4.00000E-02 1.00000E-02
 -1      1458 8.00000E-02 3.75000E-02 6.66667E-03
 -1      1459 8.86104E-02 3.57873E-02 6.66667E-03
 -1      1460 8.95671E-02 3.80970E-02 3.33333E-03
 -1      1461 8.48773E-02 3.95196E-02 0.00000E+00
 -1      1462 8.00000E-02 4.00000E-02 3.33333E-03
 -1      1463 8.00000E-02 3.75000E-02 0.00000E+00
 -1      1464 8.86104E-02 3.57873E-02 0.00000E+00
 -1      1465 9.38893E-02 3.57867E-02 2.00000E-02
 -1      1466 9.76777E-02 3.26777E-02 1.66667E-02
 -1      1467 9.38893E-02 3.57867E-02 1.33333E-02
 -1      1468 9.59099E-02 3.09099E-02 1.33333E-02
 -1      1469 9.59099E-02 3.09099E-02 2.00000E-02
 -1      1470 9.76777E-02 3.26777E-02 1.00000E-02
 -1      1471 9.38893E-02 3.57867E-02 6.66667E-03
 -1      1472 9.59099E-02 3.09099E-02 6.66667E-03
 -1      1473 9.76777E-02 3.26777E-02 3.33333E-03
 -1      1474 9.38893E-02 3.57867E-02 0.00000E+00
 -1      1475 9.59099E-02 3.09099E-02 0.00000E+00
 -1      1476 1.00787E-01 2.88893E-02 2.00000E-02
 -1      1477 1.03097E-01 2.45671E-02 1.66667E-02
 -1      1478 1.00787E-01 2.88893E-02 1.33333E-02
 -1      1479 1.00787E-01 2.36104E-02 1.33333E-02
 -1      1480 1.00787E-01 2.36104E-02 2.00000E-02
 -1      1481 1.03097E-01 2.45671E-02 1.00000E-02
 -1      1482 1.00787E-01 2.88893E-02 6.66667E-03
 -1      1483 1.00787E-01 2.36104E-02 6.66667E-03
 -1      1484 1.03097E-01 2.45671E-02 3.33333E-03
 -1      1485 1.00787E-01 2.88893E-02 0.00000E+00
 -1      1486 1.00787E-01 2.36104E-02 0.00000E+00
 -1      1487 1.04520E-01 1.98773E-02 2.00000E-02
 -1      1488 1.05000E-01 1.50000E-02 1.66667E-02
 -1      1489 1.04520E-01 1.98773E-02 1.33333E-02
 -1      1490 1.02500E-01 1.50000E-02 1.33333E-02
 -1      1491 1.02500E-01 1.50000E-02 2.00000E-02
 -1      1492 1.05000E-01 1.50000E-02 1.00000E-02
 -1      1493 1.04520E-01 1.98773E-02 6.66667E-03
 -1      1494 1.02500E-01 1.50000E-02 6.66667E-03
 -1      1495 1.05000E-01 1.50000E-02 3.33333E-03
 -1      1496 1.04520E-01 1.98773E-02 0.00000E+00
 -1      1497 1.02500E-01 1.50000E-02 0.00000E+00
 -1      1498 8.38268E-02-4.23880E-03 0.00000E+00
 -1      1499 8.76537E-02-3.47759E-03 3.33333E-03
 -1      1500 8.38268E-02-4.23880E-03 6.66667E-03
 -1      1501 8.00000E-02-5.00000E-03 3.33333E-03
 -1      1502 8.00000E-02 0.00000E+00 3.33333E-03
 -1      1503 8.29264E-02 2.88221E-04 6.66667E-03
 -1      1504 8.57403E-02 1.14181E-03 3.33333E-03
 -1      1505 8.29264E-02 2.88221E-04 0.00000E+00
 -1      1506 8.00000E-02-2.50000E-03 6.66667E-03
 -1      1507 8.00000E-02-2.50000E-03 0.00000E+00
 -1      1508 8.66970E-02-1.16789E-03 6.66667E-03
 -1      1509 8.66970E-02-1.16789E-03 0.00000E+00
 -1      1510 8.76537E-02-3.47759E-03 1.00000E-02
 -1      1511 8.38268E-02-4.23880E-03 1.33333E-02
 -1      1512 8.00000E-02-5.00000E-03 1.00000E-02
 -1      1513 8.00000E-02 0.00000E+00 1.00000E-02
 -1      1514 8.29264E-02 2.88221E-04 1.33333E-02
 -1      1515 8.57403E-02 1.14181E-03 1.00000E-02
 -1      1516 8.00000E-02-2.50000E-03 1.33333E-02
 -1      1517 8.66970E-02-1.16789E-03 1.33333E-02
 -1      1518 8.76537E-02-3.47759E-03 1.66667E-02
 -1      1519 8.38268E-02-4.23880E-03 2.00000E-02
 -1      1520 8.00000E-02-5.00000E-03 1.66667E-02
 -1      1521 8.00000E-02 0.00000E+00 1.66667E-02
 -1      1522 8.29264E-02 2.88221E-04 2.00000E-02
 -1      1523 8.57403E-02 1.14181E-03 1.66667E-02
 -1      1524 8.00000E-02-2.50000E-03 2.00000E-02
 -1      1525 8.66970E-02-1.16789E-03 2.00000E-02
 -1      1526 9.08979E-02-1.30986E-03 0.00000E+00
 -1      1527 9.41421E-02 8.57864E-04 3.33333E-03
 -1      1528 9.08979E-02-1.30986E-03 6.66667E-03
 -1      1529 8.83336E-02 2.52796E-03 6.66667E-03
 -1      1530 9.06066E-02 4.39340E-03 3.33333E-03
 -1      1531 8.83336E-02 2.52796E-03 0.00000E+00
 -1      1532 9.23744E-02 2.62563E-03 6.66667E-03
 -1      1533 9.23744E-02 2.62563E-03 0.00000E+00
 -1      1534 9.41421E-02 8.57864E-04 1.00000E-02
 -1      1535 9.08979E-02-1.30986E-03 1.33333E-02
 -1      1536 8.83336E-02 2.52796E-03 1.33333E-02
 -1      1537 9.06066E-02 4.39340E-03 1.00000E-02
 -1      1538 9.23744E-02 2.62563E-03 1.33333E-02
 -1      1539 9.41421E-02 8.57864E-04 1.66667E-02
 -1      1540 9.08979E-02-1.30986E-03 2.00000E-02
 -1      1541 8.83336E-02 2.52796E-03 2.00000E-02
 -1      1542 9.06066E-02 4.39340E-03 1.66667E-02
 -1      1543 9.23744E-02 2.62563E-03 2.00000E-02
 -1      1544 9.63099E-02 4.10210E-03 0.00000E+00
 -1      1545 9.84776E-02 7.34633E-03 3.33333E-03
 -1      1546 9.63099E-02 4.10210E-03 6.66667E-03
 -1      1547 9.24720E-02 6.66644E-03 6.66667E-03
 -1      1548 9.38582E-02 9.25975E-03 3.33333E-03
 -1      1549 9.24720E-02 6.66645E-03 0.00000E+00
 -1      1550 9.61679E-02 8.30304E-03 6.66667E-03
 -1      1551 9.61679E-02 8.30304E-03 0.00000E+00
 -1      1552 9.84776E-02 7.34633E-03 1.00000E-02
 -1      1553 9.63099E-02 4.10210E-03 1.33333E-02
 -1      1554 9.24720E-02 6.66644E-03 1.33333E-02
 -1      1555 9.38582E-02 9.25975E-03 1.00000E-02
 -1      1556 9.61679E-02 8.30304E-03 1.33333E-02
 -1      1557 9.84776E-02 7.34633E-03 1.66667E-02
 -1      1558 9.63099E-02 4.10210E-03 2.00000E-02
 -1      1559 9.24720E-02 6.66645E-03 2.00000E-02
 -1      1560 9.38582E-02 9.25975E-03 1.66667E-02
 -1      1561 9.61679E-02 8.30304E-03 2.00000E-02
 -1      1562 9.92388E-02 1.11732E-02 0.00000E+00
 -1      1563 9.92388E-02 1.11732E-02 6.66667E-03
 -1      1564 9.47118E-02 1.20736E-02 6.66667E-03
 -1      1565 9.47118E-02 1.20736E-02 0.00000E+00
 -1      1566 9.92388E-02 1.11732E-02 1.33333E-02
 -1      1567 9.47118E-02 1.20736E-02 1.33333E-02
 -1      1568 9.92388E-02 1.11732E-02 2.00000E-02
 -1      1569 9.47118E-02 1.20736E-02 2.00000E-02
 -1      1570 8.48773E-02-9.51963E-03 0.00000E+00
 -1      1571 8.95671E-02-8.09699E-03 3.33333E-03
 -1      1572 8.48773E-02-9.51963E-03 6.66667E-03
 -1      1573 8.00000E-02-1.00000E-02 3.33333E-03
 -1      1574 8.00000E-02-7.50000E-03 6.66667E-03
 -1      1575 8.00000E-02-7.50000E-03 0.00000E+00
 -1      1576 8.86104E-02-5.78729E-03 6.66667E-03
 -1      1577 8.86104E-02-5.78729E-03 0.00000E+00
 -1      1578 8.95671E-02-8.09699E-03 1.00000E-02
 -1      1579 8.48773E-02-9.51963E-03 1.33333E-02
 -1      1580 8.00000E-02-1.00000E-02 1.00000E-02
 -1      1581 8.00000E-02-7.50000E-03 1.33333E-02
 -1      1582 8.86104E-02-5.78729E-03 1.33333E-02
 -1      1583 8.95671E-02-8.09699E-03 1.66667E-02
 -1      1584 8.48773E-02-9.51963E-03 2.00000E-02
 -1      1585 8.00000E-02-1.00000E-02 1.66667E-02
 -1      1586 8.00000E-02-7.50000E-03 2.00000E-02
 -1      1587 8.86104E-02-5.78729E-03 2.00000E-02
 -1      1588 9.38893E-02-5.78674E-03 0.00000E+00
 -1      1589 9.76777E-02-2.67767E-03 3.33333E-03
 -1      1590 9.38893E-02-5.78674E-03 6.66667E-03
 -1      1591 9.59099E-02-9.09902E-04 6.66667E-03
 -1      1592 9.59099E-02-9.09903E-04 0.00000E+00
 -1      1593 9.76777E-02-2.67767E-03 1.00000E-02
 -1      1594 9.38893E-02-5.78674E-03 1.33333E-02
 -1      1595 9.59099E-02-9.09902E-04 1.33333E-02
 -1      1596 9.76777E-02-2.67767E-03 1.66667E-02
 -1      1597 9.38893E-02-5.78674E-03 2.00000E-02
 -1      1598 9.59099E-02-9.09903E-04 2.00000E-02
 -1      1599 1.00787E-01 1.11074E-03 0.00000E+00
 -1      1600 1.03097E-01 5.43292E-03 3.33333E-03
 -1      1601 1.00787E-01 1.11075E-03 6.66667E-03
 -1      1602 1.00787E-01 6.38962E-03 6.66667E-03
 -1      1603 1.00787E-01 6.38962E-03 0.00000E+00
 -1      1604 1.03097E-01 5.43292E-03 1.00000E-02
 -1      1605 1.00787E-01 1.11075E-03 1.33333E-02
 -1      1606 1.00787E-01 6.38962E-03 1.33333E-02
 -1      1607 1.03097E-01 5.43292E-03 1.66667E-02
 -1      1608 1.00787E-01 1.11074E-03 2.00000E-02
 -1      1609 1.00787E-01 6.38962E-03 2.00000E-02
 -1      1610 1.04520E-01 1.01227E-02 0.00000E+00
 -1      1611 1.04520E-01 1.01227E-02 6.66667E-03
 -1      1612 1.04520E-01 1.01227E-02 1.33333E-02
 -1      1613 1.04520E-01 1.01227E-02 2.00000E-02
 -1      1614 5.81782E-02 7.11143E-03 6.66667E-03
 -1      1615 6.13570E-02 7.55885E-03 1.00000E-02
 -1      1616 5.81789E-02 7.11408E-03 1.33333E-02
 -1      1617 5.75000E-02 1.50000E-02 1.33333E-02
 -1      1618 6.00000E-02 1.50000E-02 1.00000E-02
 -1      1619 5.75000E-02 1.50000E-02 6.66667E-03
 -1      1620 6.06789E-02 1.12807E-02 1.33333E-02
 -1      1621 6.06782E-02 1.12781E-02 6.66667E-03
 -1      1622 6.13426E-02 7.56155E-03 1.66667E-02
 -1      1623 5.81637E-02 7.11413E-03 2.00000E-02
 -1      1624 5.75000E-02 1.50000E-02 2.00000E-02
 -1      1625 6.00000E-02 1.50000E-02 1.66667E-02
 -1      1626 6.06637E-02 1.12808E-02 2.00000E-02
 -1      1627 5.96551E-02-1.17647E-03 6.66667E-03
 -1      1628 6.43155E-02-6.80738E-04 1.00000E-02
 -1      1629 5.96604E-02-1.17094E-03 1.33333E-02
 -1      1630 6.28393E-02 3.44315E-03 1.33333E-02
 -1      1631 6.28332E-02 3.43496E-03 6.66667E-03
 -1      1632 6.43182E-02-6.72225E-04 1.66667E-02
 -1      1633 5.96578E-02-1.16796E-03 2.00000E-02
 -1      1634 6.28215E-02 3.44618E-03 2.00000E-02
 -1      1635 6.13419E-02 7.55889E-03 3.33333E-03
 -1      1636 5.81637E-02 7.11413E-03 0.00000E+00
 -1      1637 5.75000E-02 1.50000E-02 0.00000E+00
 -1      1638 6.00000E-02 1.50000E-02 3.33333E-03
 -1      1639 6.06637E-02 1.12808E-02 0.00000E+00
 -1      1640 6.43128E-02-6.77758E-04 3.33333E-03
 -1      1641 5.96578E-02-1.16796E-03 0.00000E+00
 -1      1642 6.28215E-02 3.44618E-03 0.00000E+00
 -1      1643 6.37491E-02 8.40797E-03 6.66667E-03
 -1      1644 6.37347E-02 8.41067E-03 0.00000E+00
 -1      1645 6.61418E-02 9.25975E-03 3.33333E-03
 -1      1646 6.50000E-02 1.50000E-02 3.33333E-03
 -1      1647 6.25000E-02 1.50000E-02 0.00000E+00
 -1      1648 6.25000E-02 1.50000E-02 6.66667E-03
 -1      1649 6.52882E-02 1.20736E-02 0.00000E+00
 -1      1650 6.52882E-02 1.20736E-02 6.66667E-03
 -1      1651 6.68518E-02 1.85356E-03 6.66667E-03
 -1      1652 6.68545E-02 1.86208E-03 0.00000E+00
 -1      1653 6.93934E-02 4.39340E-03 3.33333E-03
 -1      1654 6.75280E-02 6.66645E-03 0.00000E+00
 -1      1655 6.75280E-02 6.66645E-03 6.66667E-03
 -1      1656 6.37498E-02 8.41062E-03 1.33333E-02
 -1      1657 6.61418E-02 9.25975E-03 1.66667E-02
 -1      1658 6.37347E-02 8.41067E-03 2.00000E-02
 -1      1659 6.25000E-02 1.50000E-02 2.00000E-02
 -1      1660 6.50000E-02 1.50000E-02 1.66667E-02
 -1      1661 6.25000E-02 1.50000E-02 1.33333E-02
 -1      1662 6.52882E-02 1.20736E-02 2.00000E-02
 -1      1663 6.52882E-02 1.20736E-02 1.33333E-02
 -1      1664 6.61418E-02 9.25975E-03 1.00000E-02
 -1      1665 6.50000E-02 1.50000E-02 1.00000E-02
 -1      1666 6.68571E-02 1.85910E-03 1.33333E-02
 -1      1667 6.93934E-02 4.39340E-03 1.66667E-02
 -1      1668 6.68545E-02 1.86208E-03 2.00000E-02
 -1      1669 6.75280E-02 6.66645E-03 2.00000E-02
 -1      1670 6.75280E-02 6.66645E-03 1.33333E-02
 -1      1671 6.93934E-02 4.39340E-03 1.00000E-02
 -1      1672 6.38217E-02-5.34313E-03 6.66667E-03
 -1      1673 6.38271E-02-5.33760E-03 1.33333E-02
 -1      1674 6.33333E-02-1.00000E-02 1.00000E-02
 -1      1675 5.91667E-02-1.00000E-02 1.33333E-02
 -1      1676 5.91667E-02-1.00000E-02 6.66667E-03
 -1      1677 6.38245E-02-5.33462E-03 2.00000E-02
 -1      1678 6.33333E-02-1.00000E-02 1.66667E-02
 -1      1679 5.91667E-02-1.00000E-02 2.00000E-02
 -1      1680 6.33333E-02-1.00000E-02 3.33333E-03
 -1      1681 6.38245E-02-5.33462E-03 0.00000E+00
 -1      1682 5.91667E-02-1.00000E-02 0.00000E+00
 -1      1683 6.84327E-02-2.16058E-03 6.66667E-03
 -1      1684 7.25579E-02-3.63338E-03 3.33333E-03
 -1      1685 6.84380E-02-2.15055E-03 0.00000E+00
 -1      1686 6.75000E-02-1.00000E-02 0.00000E+00
 -1      1687 7.16667E-02-1.00000E-02 3.33333E-03
 -1      1688 6.75000E-02-1.00000E-02 6.66667E-03
 -1      1689 7.21136E-02-6.81593E-03 0.00000E+00
 -1      1690 7.21110E-02-6.81745E-03 6.66667E-03
 -1      1691 7.62776E-02-4.31745E-03 6.66667E-03
 -1      1692 7.62803E-02-4.31593E-03 0.00000E+00
 -1      1693 7.58333E-02-1.00000E-02 0.00000E+00
 -1      1694 7.58333E-02-1.00000E-02 6.66667E-03
 -1      1695 7.25579E-02-3.63413E-03 1.00000E-02
 -1      1696 7.62803E-02-4.31668E-03 1.33333E-02
 -1      1697 7.58333E-02-1.00000E-02 1.33333E-02
 -1      1698 7.16667E-02-1.00000E-02 1.00000E-02
 -1      1699 7.21136E-02-6.81668E-03 1.33333E-02
 -1      1700 7.25605E-02-3.63261E-03 1.66667E-02
 -1      1701 7.62803E-02-4.31593E-03 2.00000E-02
 -1      1702 7.58333E-02-1.00000E-02 2.00000E-02
 -1      1703 7.16667E-02-1.00000E-02 1.66667E-02
 -1      1704 7.21136E-02-6.81593E-03 2.00000E-02
 -1      1705 6.84407E-02-2.15428E-03 1.33333E-02
 -1      1706 6.75000E-02-1.00000E-02 1.33333E-02
 -1      1707 6.84380E-02-2.15055E-03 2.00000E-02
 -1      1708 6.75000E-02-1.00000E-02 2.00000E-02
 -1      1709 7.34075E-02-1.24655E-03 6.66667E-03
 -1      1710 7.16664E-02 2.52795E-03 6.66667E-03
 -1      1711 7.16664E-02 2.52796E-03 0.00000E+00
 -1      1712 7.34101E-02-1.24503E-03 0.00000E+00
 -1      1713 7.42598E-02 1.14181E-03 3.33333E-03
 -1      1714 7.70736E-02 2.88221E-04 6.66667E-03
 -1      1715 7.70736E-02 2.88221E-04 0.00000E+00
 -1      1716 7.16664E-02 2.52796E-03 2.00000E-02
 -1      1717 7.42598E-02 1.14181E-03 1.66667E-02
 -1      1718 7.16664E-02 2.52795E-03 1.33333E-02
 -1      1719 7.34101E-02-1.24503E-03 2.00000E-02
 -1      1720 7.34101E-02-1.24578E-03 1.33333E-02
 -1      1721 7.70736E-02 2.88221E-04 2.00000E-02
 -1      1722 7.70736E-02 2.88222E-04 1.33333E-02
 -1      1723 7.42598E-02 1.14181E-03 1.00000E-02
 -1      1724 6.13419E-02 2.24411E-02 1.66667E-02
 -1      1725 5.81782E-02 2.28886E-02 1.33333E-02
 -1      1726 5.81637E-02 2.28859E-02 2.00000E-02
 -1      1727 6.06637E-02 1.87192E-02 2.00000E-02
 -1      1728 6.06782E-02 1.87219E-02 1.33333E-02
 -1      1729 6.43128E-02 3.06778E-02 1.66667E-02
 -1      1730 5.96551E-02 3.11765E-02 1.33333E-02
 -1      1731 5.96578E-02 3.11680E-02 2.00000E-02
 -1      1732 6.28215E-02 2.65538E-02 2.00000E-02
 -1      1733 6.28332E-02 2.65650E-02 1.33333E-02
 -1      1734 6.13570E-02 2.24412E-02 1.00000E-02
 -1      1735 5.81789E-02 2.28859E-02 6.66667E-03
 -1      1736 6.06789E-02 1.87193E-02 6.66667E-03
 -1      1737 6.13426E-02 2.24385E-02 3.33333E-03
 -1      1738 5.81637E-02 2.28859E-02 0.00000E+00
 -1      1739 6.06637E-02 1.87192E-02 0.00000E+00
 -1      1740 6.43155E-02 3.06807E-02 1.00000E-02
 -1      1741 5.96604E-02 3.11709E-02 6.66667E-03
 -1      1742 6.28393E-02 2.65569E-02 6.66667E-03
 -1      1743 6.43182E-02 3.06722E-02 3.33333E-03
 -1      1744 5.96578E-02 3.11680E-02 0.00000E+00
 -1      1745 6.28215E-02 2.65538E-02 0.00000E+00
 -1      1746 6.37498E-02 2.15894E-02 6.66667E-03
 -1      1747 6.61418E-02 2.07403E-02 3.33333E-03
 -1      1748 6.37347E-02 2.15893E-02 0.00000E+00
 -1      1749 6.52882E-02 1.79264E-02 0.00000E+00
 -1      1750 6.52882E-02 1.79264E-02 6.66667E-03
 -1      1751 6.37491E-02 2.15920E-02 1.33333E-02
 -1      1752 6.61418E-02 2.07403E-02 1.00000E-02
 -1      1753 6.52882E-02 1.79264E-02 1.33333E-02
 -1      1754 6.68571E-02 2.81409E-02 6.66667E-03
 -1      1755 6.93934E-02 2.56066E-02 3.33333E-03
 -1      1756 6.68545E-02 2.81379E-02 0.00000E+00
 -1      1757 6.75280E-02 2.33336E-02 0.00000E+00
 -1      1758 6.75280E-02 2.33336E-02 6.66667E-03
 -1      1759 6.68518E-02 2.81464E-02 1.33333E-02
 -1      1760 6.93934E-02 2.56066E-02 1.00000E-02
 -1      1761 6.75280E-02 2.33336E-02 1.33333E-02
 -1      1762 6.37347E-02 2.15893E-02 2.00000E-02
 -1      1763 6.61418E-02 2.07403E-02 1.66667E-02
 -1      1764 6.52882E-02 1.79264E-02 2.00000E-02
 -1      1765 6.68545E-02 2.81379E-02 2.00000E-02
 -1      1766 6.93934E-02 2.56066E-02 1.66667E-02
 -1      1767 6.75280E-02 2.33336E-02 2.00000E-02
 -1      1768 6.38217E-02 3.53431E-02 1.33333E-02
 -1      1769 6.38271E-02 3.53376E-02 6.66667E-03
 -1      1770 6.33333E-02 4.00000E-02 1.00000E-02
 -1      1771 5.91667E-02 4.00000E-02 6.66667E-03
 -1      1772 5.91667E-02 4.00000E-02 1.33333E-02
 -1      1773 6.38245E-02 3.53346E-02 0.00000E+00
 -1      1774 6.33333E-02 4.00000E-02 3.33333E-03
 -1      1775 5.91667E-02 4.00000E-02 0.00000E+00
 -1      1776 6.33333E-02 4.00000E-02 1.66667E-02
 -1      1777 6.38245E-02 3.53346E-02 2.00000E-02
 -1      1778 5.91667E-02 4.00000E-02 2.00000E-02
 -1      1779 6.84407E-02 3.21543E-02 6.66667E-03
 -1      1780 7.21136E-02 3.68167E-02 6.66667E-03
 -1      1781 6.75000E-02 4.00000E-02 6.66667E-03
 -1      1782 6.75000E-02 4.00000E-02 0.00000E+00
 -1      1783 7.21136E-02 3.68159E-02 0.00000E+00
 -1      1784 6.84380E-02 3.21506E-02 0.00000E+00
 -1      1785 7.16667E-02 4.00000E-02 3.33333E-03
 -1      1786 7.25605E-02 3.36326E-02 3.33333E-03
 -1      1787 7.62803E-02 3.43167E-02 6.66667E-03
 -1      1788 7.58333E-02 4.00000E-02 6.66667E-03
 -1      1789 7.58333E-02 4.00000E-02 0.00000E+00
 -1      1790 7.62803E-02 3.43159E-02 0.00000E+00
 -1      1791 6.84327E-02 3.21606E-02 1.33333E-02
 -1      1792 7.21110E-02 3.68174E-02 1.33333E-02
 -1      1793 6.75000E-02 4.00000E-02 1.33333E-02
 -1      1794 7.16667E-02 4.00000E-02 1.00000E-02
 -1      1795 7.25579E-02 3.36341E-02 1.00000E-02
 -1      1796 7.62776E-02 3.43174E-02 1.33333E-02
 -1      1797 7.58333E-02 4.00000E-02 1.33333E-02
 -1      1798 7.34101E-02 3.12458E-02 6.66667E-03
 -1      1799 7.70736E-02 2.97118E-02 6.66667E-03
 -1      1800 7.70736E-02 2.97118E-02 0.00000E+00
 -1      1801 7.34101E-02 3.12450E-02 0.00000E+00
 -1      1802 7.42598E-02 2.88582E-02 3.33333E-03
 -1      1803 7.16664E-02 2.74720E-02 6.66667E-03
 -1      1804 7.16664E-02 2.74720E-02 0.00000E+00
 -1      1805 7.34075E-02 3.12465E-02 1.33333E-02
 -1      1806 7.70736E-02 2.97118E-02 1.33333E-02
 -1      1807 7.42598E-02 2.88582E-02 1.00000E-02
 -1      1808 7.16664E-02 2.74720E-02 1.33333E-02
 -1      1809 7.25579E-02 3.36334E-02 1.66667E-02
 -1      1810 6.84380E-02 3.21506E-02 2.00000E-02
 -1      1811 6.75000E-02 4.00000E-02 2.00000E-02
 -1      1812 7.16667E-02 4.00000E-02 1.66667E-02
 -1      1813 7.21136E-02 3.68159E-02 2.00000E-02
 -1      1814 7.62803E-02 3.43159E-02 2.00000E-02
 -1      1815 7.58333E-02 4.00000E-02 2.00000E-02
 -1      1816 7.16664E-02 2.74720E-02 2.00000E-02
 -1      1817 7.34101E-02 3.12450E-02 2.00000E-02
 -1      1818 7.42598E-02 2.88582E-02 1.66667E-02
 -1      1819 7.70736E-02 2.97118E-02 2.00000E-02
 -3
    3C                           300                                     1
 -1         1    4    0STEEL
 -2        78       261       413       221         1        27       181        50       520       519
 -2       518       517       526       525       527       528       521       522       523       524
 -1         2    4    0STEEL
 -2       261       262       414       413        27        28       182       181       531       530
 -2       529       519       525       535       536       527       532       533       534       522
 -1         3    4    0STEEL
 -2       262        81       241       414        28         2        29       182       539       538
 -2       537       530       535       543       544       536       540       541       542       533
 -1         4    4    0STEEL
 -2       221       413       415       222        50       181       183        49       518       547
 -2       546       545       528       527       551       552       523       548       549       550
 -1         5    4    0STEEL
 -2       413       414       416       415       181       182       184       183       529       554
 -2       553       547       527       536       557       551       534       555       556       548
 -1         6    4    0STEEL
 -2       414       241       242       416       182        29        30       184       537       559
 -2       558       554       536       544       562       557       542       560       561       555
 -1         7    4    0STEEL
 -2       222       415       417       223        49       183       185        48       546       565
 -2       564       563       552       551       569       570       549       566       567       568
 -1         8    4    0STEEL
 -2       415       416       418       417       183       184       186       185       553       572
 -2       571       565       551       557       575       569       556       573       574       566
 -1         9    4    0STEEL
 -2       416       242       243       418       184        30        31       186       558       577
 -2       576       572       557       562       580       575       561       578       579       573
 -1        10    4    0STEEL
 -2       223       417       419       224        48       185       187        47       564       583
 -2       582       581       570       569       587       588       567       584       585       586
 -1        11    4    0STEEL
 -2       417       418       420       419       185       186       188       187       571       590
 -2       589       583       569       575       593       587       574       591       592       584
 -1        12    4    0STEEL
 -2       418       243       244       420       186        31        32       188       576       595
 -2       594       590       575       580       598       593       579       596       597       591
 -1        13    4    0STEEL
 -2       224       419       421       225        47       187       189        46       582       601
 -2       600       599       588       587       605       606       585       602       603       604
 -1        14    4    0STEEL
 -2       419       420       422       421       187       188       190       189       589       608
 -2       607       601       587       593       611       605       592       609       610       602
 -1        15    4    0STEEL
 -2       420       244       245       422       188        32        33       190       594       613
 -2       612       608       593       598       616       611       597       614       615       609
 -1        16    4    0STEEL
 -2       225       421       423       226        46       189       191        45       600       619
 -2       618       617       606       605       623       624       603       620       621       622
 -1        17    4    0STEEL
 -2       421       422       424       423       189       190       192       191       607       626
 -2       625       619       605       611       629       623       610       627       628       620
 -1        18    4    0STEEL
 -2       422       245       246       424       190        33        34       192       612       631
 -2       630       626       611       616       634       629       615       632       633       627
 -1        19    4    0STEEL
 -2       226       423       425       227        45       191       193        44       618       637
 -2       636       635       624       623       641       642       621       638       639       640
 -1        20    4    0STEEL
 -2       423       424       426       425       191       192       194       193       625       644
 -2       643       637       623       629       647       641       628       645       646       638
 -1        21    4    0STEEL
 -2       424       246       247       426       192        34        35       194       630       649
 -2       648       644       629       634       652       647       633       650       651       645
 -1        22    4    0STEEL
 -2       227       425       427       228        44       193       195        43       636       655
 -2       654       653       642       641       659       660       639       656       657       658
 -1        23    4    0STEEL
 -2       425       426       428       427       193       194       196       195       643       662
 -2       661       655       641       647       665       659       646       663       664       656
 -1        24    4    0STEEL
 -2       426       247       248       428       194        35        36       196       648       667
 -2       666       662       647       652       670       665       651       668       669       663
 -1        25    4    0STEEL
 -2       228       427       429       229        43       195       197        42       654       673
 -2       672       671       660       659       677       678       657       674       675       676
 -1        26    4    0STEEL
 -2       427       428       430       429       195       196       198       197       661       680
 -2       679       673       659       665       683       677       664       681       682       674
 -1        27    4    0STEEL
 -2       428       248       249       430       196        36        37       198       666       685
 -2       684       680       665       670       688       683       669       686       687       681
 -1        28    4    0STEEL
 -2       229       429       431       230        42       197       199        41       672       691
 -2       690       689       678       677       695       696       675       692       693       694
 -1        29    4    0STEEL
 -2       429       430       432       431       197       198       200       199       679       698
 -2       697       691       677       683       701       695       682       699       700       692
 -1        30    4    0STEEL
 -2       430       249       250       432       198        37        38       200       684       703
 -2       702       698       683       688       706       701       687       704       705       699
 -1        31    4    0STEEL
 -2       230       431       265        75        41       199        40         4       690       709
 -2       708       707       696       695       713       714       693       710       711       712
 -1        32    4    0STEEL
 -2       431       432       266       265       199       200        39        40       697       716
 -2       715       709       695       701       719       713       700       717       718       710
 -1        33    4    0STEEL
 -2       432       250        80       266       200        38         3        39       702       721
 -2       720       716       701       706       724       719       705       722       723       717
 -1        34    4    0STEEL
 -2        77       263       433       231        78       261       413       221       728       727
 -2       726       725       730       729       731       732       520       519       518       517
 -1        35    4    0STEEL
 -2       263       264       434       433       261       262       414       413       735       734
 -2       733       727       729       736       737       731       531       530       529       519
 -1        36    4    0STEEL
 -2       264        82       251       434       262        81       241       414       740       739
 -2       738       734       736       741       742       737       539       538       537       530
 -1        37    4    0STEEL
 -2       231       433       435       232       221       413       415       222       726       745
 -2       744       743       732       731       746       747       518       547       546       545
 -1        38    4    0STEEL
 -2       433       434       436       435       413       414       416       415       733       749
 -2       748       745       731       737       750       746       529       554       553       547
 -1        39    4    0STEEL
 -2       434       251       252       436       414       241       242       416       738       752
 -2       751       749       737       742       753       750       537       559       558       554
 -1        40    4    0STEEL
 -2       232       435       437       233       222       415       417       223       744       756
 -2       755       754       747       746       757       758       546       565       564       563
 -1        41    4    0STEEL
 -2       435       436       438       437       415       416       418       417       748       760
 -2       759       756       746       750       761       757       553       572       571       565
 -1        42    4    0STEEL
 -2       436       252       253       438       416       242       243       418       751       763
 -2       762       760       750       753       764       761       558       577       576       572
 -1        43    4    0STEEL
 -2       233       437       439       234       223       417       419       224       755       767
 -2       766       765       758       757       768       769       564       583       582       581
 -1        44    4    0STEEL
 -2       437       438       440       439       417       418       420       419       759       771
 -2       770       767       757       761       772       768       571       590       589       583
 -1        45    4    0STEEL
 -2       438       253       254       440       418       243       244       420       762       774
 -2       773       771       761       764       775       772       576       595       594       590
 -1        46    4    0STEEL
 -2       234       439       441       235       224       419       421       225       766       778
 -2       777       776       769       768       779       780       582       601       600       599
 -1        47    4    0STEEL
 -2       439       440       442       441       419       420       422       421       770       782
 -2       781       778       768       772       783       779       589       608       607       601
 -1        48    4    0STEEL
 -2       440       254       255       442       420       244       245       422       773       785
 -2       784       782       772       775       786       783       594       613       612       608
 -1        49    4    0STEEL
 -2       235       441       443       236       225       421       423       226       777       789
 -2       788       787       780       779       790       791       600       619       618       617
 -1        50    4    0STEEL
 -2       441       442       444       443       421       422       424       423       781       793
 -2       792       789       779       783       794       790       607       626       625       619
 -1        51    4    0STEEL
 -2       442       255       256       444       422       245       246       424       784       796
 -2       795       793       783       786       797       794       612       631       630       626
 -1        52    4    0STEEL
 -2       236       443       445       237       226       423       425       227       788       800
 -2       799       798       791       790       801       802       618       637       636       635
 -1        53    4    0STEEL
 -2       443       444       446       445       423       424       426       425       792       804
 -2       803       800       790       794       805       801       625       644       643       637
 -1        54    4    0STEEL
 -2       444       256       257       446       424       246       247       426       795       807
 -2       806       804       794       797       808       805       630       649       648       644
 -1        55    4    0STEEL
 -2       237       445       447       238       227       425       427       228       799       811
 -2       810       809       802       801       812       813       636       655       654       653
 -1        56    4    0STEEL
 -2       445       446       448       447       425       426       428       427       803       815
 -2       814       811       801       805       816       812       643       662       661       655
 -1        57    4    0STEEL
 -2       446       257       258       448       426       247       248       428       806       818
 -2       817       815       805       808       819       816       648       667       666       662
 -1        58    4    0STEEL
 -2       238       447       449       239       228       427       429       229       810       822
 -2       821       820       813       812       823       824       654       673       672       671
 -1        59    4    0STEEL
 -2       447       448       450       449       427       428       430       429       814       826
 -2       825       822       812       816       827       823       661       680       679       673
 -1        60    4    0STEEL
 -2       448       258       259       450       428       248       249       430       817       829
 -2       828       826       816       819       830       827       666       685       684       680
 -1        61    4    0STEEL
 -2       239       449       451       240       229       429       431       230       821       833
 -2       832       831       824       823       834       835       672       691       690       689
 -1        62    4    0STEEL
 -2       449       450       452       451       429       430       432       431       825       837
 -2       836       833       823       827       838       834       679       698       697       691
 -1        63    4    0STEEL
 -2       450       259       260       452       430       249       250       432       828       840
 -2       839       837       827       830       841       838       684       703       702       698
 -1        64    4    0STEEL
 -2       240       451       267        76       230       431       265        75       832       844
 -2       843       842       835       834       845       846       690       709       708       707
 -1        65    4    0STEEL
 -2       451       452       268       267       431       432       266       265       836       848
 -2       847       844       834       838       849       845       697       716       715       709
 -1        66    4    0STEEL
 -2       452       260        79       268       432       250        80       266       839       851
 -2       850       848       838       841       852       849       702       721       720       716
 -1        67    4    0STEEL
 -2         8        52       201        65        77       263       433       231       856       855
 -2       854       853       858       857       859       860       728       727       726       725
 -1        68    4    0STEEL
 -2        52        51       202       201       263       264       434       433       863       862
 -2       861       855       857       864       865       859       735       734       733       727
 -1        69    4    0STEEL
 -2        51         5        62       202       264        82       251       434       868       867
 -2       866       862       864       869       870       865       740       739       738       734
 -1        70    4    0STEEL
 -2        65       201       203        66       231       433       435       232       854       873
 -2       872       871       860       859       874       875       726       745       744       743
 -1        71    4    0STEEL
 -2       201       202       204       203       433       434       436       435       861       877
 -2       876       873       859       865       878       874       733       749       748       745
 -1        72    4    0STEEL
 -2       202        62        61       204       434       251       252       436       866       880
 -2       879       877       865       870       881       878       738       752       751       749
 -1        73    4    0STEEL
 -2        66       203       205        67       232       435       437       233       872       884
 -2       883       882       875       874       885       886       744       756       755       754
 -1        74    4    0STEEL
 -2       203       204       206       205       435       436       438       437       876       888
 -2       887       884       874       878       889       885       748       760       759       756
 -1        75    4    0STEEL
 -2       204        61        60       206       436       252       253       438       879       891
 -2       890       888       878       881       892       889       751       763       762       760
 -1        76    4    0STEEL
 -2        67       205       207        68       233       437       439       234       883       895
 -2       894       893       886       885       896       897       755       767       766       765
 -1        77    4    0STEEL
 -2       205       206       208       207       437       438       440       439       887       899
 -2       898       895       885       889       900       896       759       771       770       767
 -1        78    4    0STEEL
 -2       206        60        59       208       438       253       254       440       890       902
 -2       901       899       889       892       903       900       762       774       773       771
 -1        79    4    0STEEL
 -2        68       207       209        69       234       439       441       235       894       906
 -2       905       904       897       896       907       908       766       778       777       776
 -1        80    4    0STEEL
 -2       207       208       210       209       439       440       442       441       898       910
 -2       909       906       896       900       911       907       770       782       781       778
 -1        81    4    0STEEL
 -2       208        59        58       210       440       254       255       442       901       913
 -2       912       910       900       903       914       911       773       785       784       782
 -1        82    4    0STEEL
 -2        69       209       211        70       235       441       443       236       905       917
 -2       916       915       908       907       918       919       777       789       788       787
 -1        83    4    0STEEL
 -2       209       210       212       211       441       442       444       443       909       921
 -2       920       917       907       911       922       918       781       793       792       789
 -1        84    4    0STEEL
 -2       210        58        57       212       442       255       256       444       912       924
 -2       923       921       911       914       925       922       784       796       795       793
 -1        85    4    0STEEL
 -2        70       211       213        71       236       443       445       237       916       928
 -2       927       926       919       918       929       930       788       800       799       798
 -1        86    4    0STEEL
 -2       211       212       214       213       443       444       446       445       920       932
 -2       931       928       918       922       933       929       792       804       803       800
 -1        87    4    0STEEL
 -2       212        57        56       214       444       256       257       446       923       935
 -2       934       932       922       925       936       933       795       807       806       804
 -1        88    4    0STEEL
 -2        71       213       215        72       237       445       447       238       927       939
 -2       938       937       930       929       940       941       799       811       810       809
 -1        89    4    0STEEL
 -2       213       214       216       215       445       446       448       447       931       943
 -2       942       939       929       933       944       940       803       815       814       811
 -1        90    4    0STEEL
 -2       214        56        55       216       446       257       258       448       934       946
 -2       945       943       933       936       947       944       806       818       817       815
 -1        91    4    0STEEL
 -2        72       215       217        73       238       447       449       239       938       950
 -2       949       948       941       940       951       952       810       822       821       820
 -1        92    4    0STEEL
 -2       215       216       218       217       447       448       450       449       942       954
 -2       953       950       940       944       955       951       814       826       825       822
 -1        93    4    0STEEL
 -2       216        55        54       218       448       258       259       450       945       957
 -2       956       954       944       947       958       955       817       829       828       826
 -1        94    4    0STEEL
 -2        73       217       219        74       239       449       451       240       949       961
 -2       960       959       952       951       962       963       821       833       832       831
 -1        95    4    0STEEL
 -2       217       218       220       219       449       450       452       451       953       965
 -2       964       961       951       955       966       962       825       837       836       833
 -1        96    4    0STEEL
 -2       218        54        53       220       450       259       260       452       956       968
 -2       967       965       955       958       969       966       828       840       839       837
 -1        97    4    0STEEL
 -2        74       219        63         7       240       451       267        76       960       972
 -2       971       970       963       962       973       974       832       844       843       842
 -1        98    4    0STEEL
 -2       219       220        64        63       451       452       268       267       964       976
 -2       975       972       962       966       977       973       836       848       847       844
 -1        99    4    0STEEL
 -2       220        53         6        64       452       260        79       268       967       979
 -2       978       976       966       969       980       977       839       851       850       848
 -1       100    4    0STEEL
 -2         1        27       181        50       109       329       453       289       521       522
 -2       523       524       986       985       987       988       981       982       983       984
 -1       101    4    0STEEL
 -2        27        28       182       181       329       330       454       453       532       533
 -2       534       522       985       992       993       987       989       990       991       982
 -1       102    4    0STEEL
 -2        28         2        29       182       330       114       309       454       540       541
 -2       542       533       992       997       998       993       994       995       996       990
 -1       103    4    0STEEL
 -2        50       181       183        49       289       453       455       290       523       548
 -2       549       550       988       987      1002      1003       983       999      1000      1001
 -1       104    4    0STEEL
 -2       181       182       184       183       453       454       456       455       534       555
 -2       556       548       987       993      1006      1002       991      1004      1005       999
 -1       105    4    0STEEL
 -2       182        29        30       184       454       309       310       456       542       560
 -2       561       555       993       998      1009      1006       996      1007      1008      1004
 -1       106    4    0STEEL
 -2        49       183       185        48       290       455       457       291       549       566
 -2       567       568      1003      1002      1013      1014      1000      1010      1011      1012
 -1       107    4    0STEEL
 -2       183       184       186       185       455       456       458       457       556       573
 -2       574       566      1002      1006      1017      1013      1005      1015      1016      1010
 -1       108    4    0STEEL
 -2       184        30        31       186       456       310       311       458       561       578
 -2       579       573      1006      1009      1020      1017      1008      1018      1019      1015
 -1       109    4    0STEEL
 -2        48       185       187        47       291       457       459       292       567       584
 -2       585       586      1014      1013      1024      1025      1011      1021      1022      1023
 -1       110    4    0STEEL
 -2       185       186       188       187       457       458       460       459       574       591
 -2       592       584      1013      1017      1028      1024      1016      1026      1027      1021
 -1       111    4    0STEEL
 -2       186        31        32       188       458       311       312       460       579       596
 -2       597       591      1017      1020      1031      1028      1019      1029      1030      1026
 -1       112    4    0STEEL
 -2        47       187       189        46       292       459       461       293       585       602
 -2       603       604      1025      1024      1035      1036      1022      1032      1033      1034
 -1       113    4    0STEEL
 -2       187       188       190       189       459       460       462       461       592       609
 -2       610       602      1024      1028      1039      1035      1027      1037      1038      1032
 -1       114    4    0STEEL
 -2       188        32        33       190       460       312       313       462       597       614
 -2       615       609      1028      1031      1042      1039      1030      1040      1041      1037
 -1       115    4    0STEEL
 -2        46       189       191        45       293       461       463       294       603       620
 -2       621       622      1036      1035      1046      1047      1033      1043      1044      1045
 -1       116    4    0STEEL
 -2       189       190       192       191       461       462       464       463       610       627
 -2       628       620      1035      1039      1050      1046      1038      1048      1049      1043
 -1       117    4    0STEEL
 -2       190        33        34       192       462       313       314       464       615       632
 -2       633       627      1039      1042      1053      1050      1041      1051      1052      1048
 -1       118    4    0STEEL
 -2        45       191       193        44       294       463       465       295       621       638
 -2       639       640      1047      1046      1057      1058      1044      1054      1055      1056
 -1       119    4    0STEEL
 -2       191       192       194       193       463       464       466       465       628       645
 -2       646       638      1046      1050      1061      1057      1049      1059      1060      1054
 -1       120    4    0STEEL
 -2       192        34        35       194       464       314       315       466       633       650
 -2       651       645      1050      1053      1064      1061      1052      1062      1063      1059
 -1       121    4    0STEEL
 -2        44       193       195        43       295       465       467       296       639       656
 -2       657       658      1058      1057      1068      1069      1055      1065      1066      1067
 -1       122    4    0STEEL
 -2       193       194       196       195       465       466       468       467       646       663
 -2       664       656      1057      1061      1072      1068      1060      1070      1071      1065
 -1       123    4    0STEEL
 -2       194        35        36       196       466       315       316       468       651       668
 -2       669       663      1061      1064      1075      1072      1063      1073      1074      1070
 -1       124    4    0STEEL
 -2        43       195       197        42       296       467       469       297       657       674
 -2       675       676      1069      1068      1079      1080      1066      1076      1077      1078
 -1       125    4    0STEEL
 -2       195       196       198       197       467       468       470       469       664       681
 -2       682       674      1068      1072      1083      1079      1071      1081      1082      1076
 -1       126    4    0STEEL
 -2       196        36        37       198       468       316       317       470       669       686
 -2       687       681      1072      1075      1086      1083      1074      1084      1085      1081
 -1       127    4    0STEEL
 -2        42       197       199        41       297       469       471       298       675       692
 -2       693       694      1080      1079      1090      1091      1077      1087      1088      1089
 -1       128    4    0STEEL
 -2       197       198       200       199       469       470       472       471       682       699
 -2       700       692      1079      1083      1094      1090      1082      1092      1093      1087
 -1       129    4    0STEEL
 -2       198        37        38       200       470       317       318       472       687       704
 -2       705       699      1083      1086      1097      1094      1085      1095      1096      1092
 -1       130    4    0STEEL
 -2        41       199        40         4       298       471       333       108       693       710
 -2       711       712      1091      1090      1101      1102      1088      1098      1099      1100
 -1       131    4    0STEEL
 -2       199       200        39        40       471       472       334       333       700       717
 -2       718       710      1090      1094      1105      1101      1093      1103      1104      1098
 -1       132    4    0STEEL
 -2       200        38         3        39       472       318       111       334       705       722
 -2       723       717      1094      1097      1108      1105      1096      1106      1107      1103
 -1       133    4    0STEEL
 -2       109       329       453       289       110       331       473       299       981       982
 -2       983       984      1114      1113      1115      1116      1109      1110      1111      1112
 -1       134    4    0STEEL
 -2       329       330       454       453       331       332       474       473       989       990
 -2       991       982      1113      1120      1121      1115      1117      1118      1119      1110
 -1       135    4    0STEEL
 -2       330       114       309       454       332       113       319       474       994       995
 -2       996       990      1120      1125      1126      1121      1122      1123      1124      1118
 -1       136    4    0STEEL
 -2       289       453       455       290       299       473       475       300       983       999
 -2      1000      1001      1116      1115      1130      1131      1111      1127      1128      1129
 -1       137    4    0STEEL
 -2       453       454       456       455       473       474       476       475       991      1004
 -2      1005       999      1115      1121      1134      1130      1119      1132      1133      1127
 -1       138    4    0STEEL
 -2       454       309       310       456       474       319       320       476       996      1007
 -2      1008      1004      1121      1126      1137      1134      1124      1135      1136      1132
 -1       139    4    0STEEL
 -2       290       455       457       291       300       475       477       301      1000      1010
 -2      1011      1012      1131      1130      1141      1142      1128      1138      1139      1140
 -1       140    4    0STEEL
 -2       455       456       458       457       475       476       478       477      1005      1015
 -2      1016      1010      1130      1134      1145      1141      1133      1143      1144      1138
 -1       141    4    0STEEL
 -2       456       310       311       458       476       320       321       478      1008      1018
 -2      1019      1015      1134      1137      1148      1145      1136      1146      1147      1143
 -1       142    4    0STEEL
 -2       291       457       459       292       301       477       479       302      1011      1021
 -2      1022      1023      1142      1141      1152      1153      1139      1149      1150      1151
 -1       143    4    0STEEL
 -2       457       458       460       459       477       478       480       479      1016      1026
 -2      1027      1021      1141      1145      1156      1152      1144      1154      1155      1149
 -1       144    4    0STEEL
 -2       458       311       312       460       478       321       322       480      1019      1029
 -2      1030      1026      1145      1148      1159      1156      1147      1157      1158      1154
 -1       145    4    0STEEL
 -2       292       459       461       293       302       479       481       303      1022      1032
 -2      1033      1034      1153      1152      1163      1164      1150      1160      1161      1162
 -1       146    4    0STEEL
 -2       459       460       462       461       479       480       482       481      1027      1037
 -2      1038      1032      1152      1156      1167      1163      1155      1165      1166      1160
 -1       147    4    0STEEL
 -2       460       312       313       462       480       322       323       482      1030      1040
 -2      1041      1037      1156      1159      1170      1167      1158      1168      1169      1165
 -1       148    4    0STEEL
 -2       293       461       463       294       303       481       483       304      1033      1043
 -2      1044      1045      1164      1163      1174      1175      1161      1171      1172      1173
 -1       149    4    0STEEL
 -2       461       462       464       463       481       482       484       483      1038      1048
 -2      1049      1043      1163      1167      1178      1174      1166      1176      1177      1171
 -1       150    4    0STEEL
 -2       462       313       314       464       482       323       324       484      1041      1051
 -2      1052      1048      1167      1170      1181      1178      1169      1179      1180      1176
 -1       151    4    0STEEL
 -2       294       463       465       295       304       483       485       305      1044      1054
 -2      1055      1056      1175      1174      1185      1186      1172      1182      1183      1184
 -1       152    4    0STEEL
 -2       463       464       466       465       483       484       486       485      1049      1059
 -2      1060      1054      1174      1178      1189      1185      1177      1187      1188      1182
 -1       153    4    0STEEL
 -2       464       314       315       466       484       324       325       486      1052      1062
 -2      1063      1059      1178      1181      1192      1189      1180      1190      1191      1187
 -1       154    4    0STEEL
 -2       295       465       467       296       305       485       487       306      1055      1065
 -2      1066      1067      1186      1185      1196      1197      1183      1193      1194      1195
 -1       155    4    0STEEL
 -2       465       466       468       467       485       486       488       487      1060      1070
 -2      1071      1065      1185      1189      1200      1196      1188      1198      1199      1193
 -1       156    4    0STEEL
 -2       466       315       316       468       486       325       326       488      1063      1073
 -2      1074      1070      1189      1192      1203      1200      1191      1201      1202      1198
 -1       157    4    0STEEL
 -2       296       467       469       297       306       487       489       307      1066      1076
 -2      1077      1078      1197      1196      1207      1208      1194      1204      1205      1206
 -1       158    4    0STEEL
 -2       467       468       470       469       487       488       490       489      1071      1081
 -2      1082      1076      1196      1200      1211      1207      1199      1209      1210      1204
 -1       159    4    0STEEL
 -2       468       316       317       470       488       326       327       490      1074      1084
 -2      1085      1081      1200      1203      1214      1211      1202      1212      1213      1209
 -1       160    4    0STEEL
 -2       297       469       471       298       307       489       491       308      1077      1087
 -2      1088      1089      1208      1207      1218      1219      1205      1215      1216      1217
 -1       161    4    0STEEL
 -2       469       470       472       471       489       490       492       491      1082      1092
 -2      1093      1087      1207      1211      1222      1218      1210      1220      1221      1215
 -1       162    4    0STEEL
 -2       470       317       318       472       490       327       328       492      1085      1095
 -2      1096      1092      1211      1214      1225      1222      1213      1223      1224      1220
 -1       163    4    0STEEL
 -2       298       471       333       108       308       491       335       107      1088      1098
 -2      1099      1100      1219      1218      1229      1230      1216      1226      1227      1228
 -1       164    4    0STEEL
 -2       471       472       334       333       491       492       336       335      1093      1103
 -2      1104      1098      1218      1222      1233      1229      1221      1231      1232      1226
 -1       165    4    0STEEL
 -2       472       318       111       334       492       328       112       336      1096      1106
 -2      1107      1103      1222      1225      1236      1233      1224      1234      1235      1231
 -1       166    4    0STEEL
 -2       110       331       473       299         9        83       269       106      1109      1110
 -2      1111      1112      1242      1241      1243      1244      1237      1238      1239      1240
 -1       167    4    0STEEL
 -2       331       332       474       473        83        84       270       269      1117      1118
 -2      1119      1110      1241      1248      1249      1243      1245      1246      1247      1238
 -1       168    4    0STEEL
 -2       332       113       319       474        84        10        85       270      1122      1123
 -2      1124      1118      1248      1253      1254      1249      1250      1251      1252      1246
 -1       169    4    0STEEL
 -2       299       473       475       300       106       269       271       105      1111      1127
 -2      1128      1129      1244      1243      1258      1259      1239      1255      1256      1257
 -1       170    4    0STEEL
 -2       473       474       476       475       269       270       272       271      1119      1132
 -2      1133      1127      1243      1249      1262      1258      1247      1260      1261      1255
 -1       171    4    0STEEL
 -2       474       319       320       476       270        85        86       272      1124      1135
 -2      1136      1132      1249      1254      1265      1262      1252      1263      1264      1260
 -1       172    4    0STEEL
 -2       300       475       477       301       105       271       273       104      1128      1138
 -2      1139      1140      1259      1258      1269      1270      1256      1266      1267      1268
 -1       173    4    0STEEL
 -2       475       476       478       477       271       272       274       273      1133      1143
 -2      1144      1138      1258      1262      1273      1269      1261      1271      1272      1266
 -1       174    4    0STEEL
 -2       476       320       321       478       272        86        87       274      1136      1146
 -2      1147      1143      1262      1265      1276      1273      1264      1274      1275      1271
 -1       175    4    0STEEL
 -2       301       477       479       302       104       273       275       103      1139      1149
 -2      1150      1151      1270      1269      1280      1281      1267      1277      1278      1279
 -1       176    4    0STEEL
 -2       477       478       480       479       273       274       276       275      1144      1154
 -2      1155      1149      1269      1273      1284      1280      1272      1282      1283      1277
 -1       177    4    0STEEL
 -2       478       321       322       480       274        87        88       276      1147      1157
 -2      1158      1154      1273      1276      1287      1284      1275      1285      1286      1282
 -1       178    4    0STEEL
 -2       302       479       481       303       103       275       277       102      1150      1160
 -2      1161      1162      1281      1280      1291      1292      1278      1288      1289      1290
 -1       179    4    0STEEL
 -2       479       480       482       481       275       276       278       277      1155      1165
 -2      1166      1160      1280      1284      1295      1291      1283      1293      1294      1288
 -1       180    4    0STEEL
 -2       480       322       323       482       276        88        89       278      1158      1168
 -2      1169      1165      1284      1287      1298      1295      1286      1296      1297      1293
 -1       181    4    0STEEL
 -2       303       481       483       304       102       277       279       101      1161      1171
 -2      1172      1173      1292      1291      1302      1303      1289      1299      1300      1301
 -1       182    4    0STEEL
 -2       481       482       484       483       277       278       280       279      1166      1176
 -2      1177      1171      1291      1295      1306      1302      1294      1304      1305      1299
 -1       183    4    0STEEL
 -2       482       323       324       484       278        89        90       280      1169      1179
 -2      1180      1176      1295      1298      1309      1306      1297      1307      1308      1304
 -1       184    4    0STEEL
 -2       304       483       485       305       101       279       281       100      1172      1182
 -2      1183      1184      1303      1302      1313      1314      1300      1310      1311      1312
 -1       185    4    0STEEL
 -2       483       484       486       485       279       280       282       281      1177      1187
 -2      1188      1182      1302      1306      1317      1313      1305      1315      1316      1310
 -1       186    4    0STEEL
 -2       484       324       325       486       280        90        91       282      1180      1190
 -2      1191      1187      1306      1309      1320      1317      1308      1318      1319      1315
 -1       187    4    0STEEL
 -2       305       485       487       306       100       281       283        99      1183      1193
 -2      1194      1195      1314      1313      1324      1325      1311      1321      1322      1323
 -1       188    4    0STEEL
 -2       485       486       488       487       281       282       284       283      1188      1198
 -2      1199      1193      1313      1317      1328      1324      1316      1326      1327      1321
 -1       189    4    0STEEL
 -2       486       325       326       488       282        91        92       284      1191      1201
 -2      1202      1198      1317      1320      1331      1328      1319      1329      1330      1326
 -1       190    4    0STEEL
 -2       306       487       489       307        99       283       285        98      1194      1204
 -2      1205      1206      1325      1324      1335      1336      1322      1332      1333      1334
 -1       191    4    0STEEL
 -2       487       488       490       489       283       284       286       285      1199      1209
 -2      1210      1204      1324      1328      1339      1335      1327      1337      1338      1332
 -1       192    4    0STEEL
 -2       488       326       327       490       284        92        93       286      1202      1212
 -2      1213      1209      1328      1331      1342      1339      1330      1340      1341      1337
 -1       193    4    0STEEL
 -2       307       489       491       308        98       285       287        97      1205      1215
 -2      1216      1217      1336      1335      1346      1347      1333      1343      1344      1345
 -1       194    4    0STEEL
 -2       489       490       492       491       285       286       288       287      1210      1220
 -2      1221      1215      1335      1339      1350      1346      1338      1348      1349      1343
 -1       195    4    0STEEL
 -2       490       327       328       492       286        93        94       288      1213      1223
 -2      1224      1220      1339      1342      1353      1350      1341      1351      1352      1348
 -1       196    4    0STEEL
 -2       308       491       335       107        97       287        96        12      1216      1226
 -2      1227      1228      1347      1346      1357      1358      1344      1354      1355      1356
 -1       197    4    0STEEL
 -2       491       492       336       335       287       288        95        96      1221      1231
 -2      1232      1226      1346      1350      1361      1357      1349      1359      1360      1354
 -1       198    4    0STEEL
 -2       492       328       112       336       288        94        11        95      1224      1234
 -2      1235      1231      1350      1353      1364      1361      1352      1362      1363      1359
 -1       199    4    0STEEL
 -2       136       355       493       349        13       115       337       124      1368      1367
 -2      1366      1365      1374      1373      1375      1376      1369      1370      1371      1372
 -1       200    4    0STEEL
 -2       355       356       494       493       115       116       338       337      1379      1378
 -2      1377      1367      1373      1383      1384      1375      1380      1381      1382      1370
 -1       201    4    0STEEL
 -2       356       138       352       494       116        14       117       338      1387      1386
 -2      1385      1378      1383      1391      1392      1384      1388      1389      1390      1381
 -1       202    4    0STEEL
 -2       349       493       495       350       124       337       339       123      1366      1395
 -2      1394      1393      1376      1375      1399      1400      1371      1396      1397      1398
 -1       203    4    0STEEL
 -2       493       494       496       495       337       338       340       339      1377      1402
 -2      1401      1395      1375      1384      1405      1399      1382      1403      1404      1396
 -1       204    4    0STEEL
 -2       494       352       353       496       338       117       118       340      1385      1407
 -2      1406      1402      1384      1392      1410      1405      1390      1408      1409      1403
 -1       205    4    0STEEL
 -2       350       495       497       351       123       339       341       122      1394      1413
 -2      1412      1411      1400      1399      1417      1418      1397      1414      1415      1416
 -1       206    4    0STEEL
 -2       495       496       498       497       339       340       342       341      1401      1420
 -2      1419      1413      1399      1405      1423      1417      1404      1421      1422      1414
 -1       207    4    0STEEL
 -2       496       353       354       498       340       118       119       342      1406      1425
 -2      1424      1420      1405      1410      1428      1423      1409      1426      1427      1421
 -1       208    4    0STEEL
 -2       351       497       357       135       122       341       121        16      1412      1431
 -2      1430      1429      1418      1417      1435      1436      1415      1432      1433      1434
 -1       209    4    0STEEL
 -2       497       498       358       357       341       342       120       121      1419      1438
 -2      1437      1431      1417      1423      1441      1435      1422      1439      1440      1432
 -1       210    4    0STEEL
 -2       498       354       137       358       342       119        15       120      1424      1443
 -2      1442      1438      1423      1428      1446      1441      1427      1444      1445      1439
 -1       211    4    0STEEL
 -2        20       126       343       132       136       355       493       349      1450      1449
 -2      1448      1447      1452      1451      1453      1454      1368      1367      1366      1365
 -1       212    4    0STEEL
 -2       126       125       344       343       355       356       494       493      1457      1456
 -2      1455      1449      1451      1458      1459      1453      1379      1378      1377      1367
 -1       213    4    0STEEL
 -2       125        17       129       344       356       138       352       494      1462      1461
 -2      1460      1456      1458      1463      1464      1459      1387      1386      1385      1378
 -1       214    4    0STEEL
 -2       132       343       345       133       349       493       495       350      1448      1467
 -2      1466      1465      1454      1453      1468      1469      1366      1395      1394      1393
 -1       215    4    0STEEL
 -2       343       344       346       345       493       494       496       495      1455      1471
 -2      1470      1467      1453      1459      1472      1468      1377      1402      1401      1395
 -1       216    4    0STEEL
 -2       344       129       128       346       494       352       353       496      1460      1474
 -2      1473      1471      1459      1464      1475      1472      1385      1407      1406      1402
 -1       217    4    0STEEL
 -2       133       345       347       134       350       495       497       351      1466      1478
 -2      1477      1476      1469      1468      1479      1480      1394      1413      1412      1411
 -1       218    4    0STEEL
 -2       345       346       348       347       495       496       498       497      1470      1482
 -2      1481      1478      1468      1472      1483      1479      1401      1420      1419      1413
 -1       219    4    0STEEL
 -2       346       128       127       348       496       353       354       498      1473      1485
 -2      1484      1482      1472      1475      1486      1483      1406      1425      1424      1420
 -1       220    4    0STEEL
 -2       134       347       130        19       351       497       357       135      1477      1489
 -2      1488      1487      1480      1479      1490      1491      1412      1431      1430      1429
 -1       221    4    0STEEL
 -2       347       348       131       130       497       498       358       357      1481      1493
 -2      1492      1489      1479      1483      1494      1490      1419      1438      1437      1431
 -1       222    4    0STEEL
 -2       348       127        18       131       498       354       137       358      1484      1496
 -2      1495      1493      1483      1486      1497      1494      1424      1443      1442      1438
 -1       223    4    0STEEL
 -2       155       377       499       371        21       139       359       146      1501      1500
 -2      1499      1498      1507      1506      1508      1509      1502      1503      1504      1505
 -1       224    4    0STEEL
 -2       377       378       500       499       139       140       360       359      1512      1511
 -2      1510      1500      1506      1516      1517      1508      1513      1514      1515      1503
 -1       225    4    0STEEL
 -2       378       156       374       500       140        22       141       360      1520      1519
 -2      1518      1511      1516      1524      1525      1517      1521      1522      1523      1514
 -1       226    4    0STEEL
 -2       371       499       501       372       146       359       361       145      1499      1528
 -2      1527      1526      1509      1508      1532      1533      1504      1529      1530      1531
 -1       227    4    0STEEL
 -2       499       500       502       501       359       360       362       361      1510      1535
 -2      1534      1528      1508      1517      1538      1532      1515      1536      1537      1529
 -1       228    4    0STEEL
 -2       500       374       375       502       360       141       142       362      1518      1540
 -2      1539      1535      1517      1525      1543      1538      1523      1541      1542      1536
 -1       229    4    0STEEL
 -2       372       501       503       373       145       361       363       144      1527      1546
 -2      1545      1544      1533      1532      1550      1551      1530      1547      1548      1549
 -1       230    4    0STEEL
 -2       501       502       504       503       361       362       364       363      1534      1553
 -2      1552      1546      1532      1538      1556      1550      1537      1554      1555      1547
 -1       231    4    0STEEL
 -2       502       375       376       504       362       142       143       364      1539      1558
 -2      1557      1553      1538      1543      1561      1556      1542      1559      1560      1554
 -1       232    4    0STEEL
 -2       373       503       358       137       144       363       120        15      1545      1563
 -2      1442      1562      1551      1550      1441      1446      1548      1564      1445      1565
 -1       233    4    0STEEL
 -2       503       504       357       358       363       364       121       120      1552      1566
 -2      1437      1563      1550      1556      1435      1441      1555      1567      1440      1564
 -1       234    4    0STEEL
 -2       504       376       135       357       364       143        16       121      1557      1568
 -2      1430      1566      1556      1561      1436      1435      1560      1569      1433      1567
 -1       235    4    0STEEL
 -2        24       148       365       152       155       377       499       371      1573      1572
 -2      1571      1570      1575      1574      1576      1577      1501      1500      1499      1498
 -1       236    4    0STEEL
 -2       148       147       366       365       377       378       500       499      1580      1579
 -2      1578      1572      1574      1581      1582      1576      1512      1511      1510      1500
 -1       237    4    0STEEL
 -2       147        23       151       366       378       156       374       500      1585      1584
 -2      1583      1579      1581      1586      1587      1582      1520      1519      1518      1511
 -1       238    4    0STEEL
 -2       152       365       367       153       371       499       501       372      1571      1590
 -2      1589      1588      1577      1576      1591      1592      1499      1528      1527      1526
 -1       239    4    0STEEL
 -2       365       366       368       367       499       500       502       501      1578      1594
 -2      1593      1590      1576      1582      1595      1591      1510      1535      1534      1528
 -1       240    4    0STEEL
 -2       366       151       150       368       500       374       375       502      1583      1597
 -2      1596      1594      1582      1587      1598      1595      1518      1540      1539      1535
 -1       241    4    0STEEL
 -2       153       367       369       154       372       501       503       373      1589      1601
 -2      1600      1599      1592      1591      1602      1603      1527      1546      1545      1544
 -1       242    4    0STEEL
 -2       367       368       370       369       501       502       504       503      1593      1605
 -2      1604      1601      1591      1595      1606      1602      1534      1553      1552      1546
 -1       243    4    0STEEL
 -2       368       150       149       370       502       375       376       504      1596      1608
 -2      1607      1605      1595      1598      1609      1606      1539      1558      1557      1553
 -1       244    4    0STEEL
 -2       154       369       131        18       373       503       358       137      1600      1611
 -2      1495      1610      1603      1602      1494      1497      1545      1563      1442      1562
 -1       245    4    0STEEL
 -2       369       370       130       131       503       504       357       358      1604      1612
 -2      1492      1611      1602      1606      1490      1494      1552      1566      1437      1563
 -1       246    4    0STEEL
 -2       370       149        19       130       504       376       135       357      1607      1613
 -2      1488      1612      1606      1609      1491      1490      1557      1568      1430      1566
 -1       247    4    0STEEL
 -2       329       330       509       507        27        28       380       379       989      1616
 -2      1615      1614       985       992      1620      1621       532      1617      1618      1619
 -1       248    4    0STEEL
 -2       330       114       381       509        28         2       157       380       994      1623
 -2      1622      1616       992       997      1626      1620       540      1624      1625      1617
 -1       249    4    0STEEL
 -2       331       332       506       505       329       330       509       507      1117      1629
 -2      1628      1627      1113      1120      1630      1631       989      1616      1615      1614
 -1       250    4    0STEEL
 -2       332       113       382       506       330       114       381       509      1122      1633
 -2      1632      1629      1120      1125      1634      1630       994      1623      1622      1616
 -1       251    4    0STEEL
 -2       384       109       329       507       158         1        27       379      1636       981
 -2      1614      1635      1639       986       985      1621      1637       521      1619      1638
 -1       252    4    0STEEL
 -2       385       110       331       505       384       109       329       507      1641      1109
 -2      1627      1640      1642      1114      1113      1631      1636       981      1614      1635
 -1       253    4    0STEEL
 -2       387       161       384       507       159        25       158       379      1645      1644
 -2      1635      1643      1650      1649      1639      1621      1646      1647      1638      1648
 -1       254    4    0STEEL
 -2       388       162       385       505       387       161       384       507      1653      1652
 -2      1640      1651      1655      1654      1642      1631      1645      1644      1635      1643
 -1       255    4    0STEEL
 -2       381       164       389       509       157        26       160       380      1658      1657
 -2      1656      1622      1626      1662      1663      1620      1659      1660      1661      1625
 -1       256    4    0STEEL
 -2       509       389       387       507       380       160       159       379      1656      1664
 -2      1643      1615      1620      1663      1650      1621      1661      1665      1648      1618
 -1       257    4    0STEEL
 -2       382       165       390       506       381       164       389       509      1668      1667
 -2      1666      1632      1634      1669      1670      1630      1658      1657      1656      1622
 -1       258    4    0STEEL
 -2       506       390       388       505       509       389       387       507      1666      1671
 -2      1651      1628      1630      1670      1655      1631      1656      1664      1643      1615
 -1       259    4    0STEEL
 -2       393       394       506       505        83        84       332       331      1674      1673
 -2      1628      1672      1676      1675      1629      1627      1245      1248      1117      1241
 -1       260    4    0STEEL
 -2       394       167       382       506        84        10       113       332      1678      1677
 -2      1632      1673      1675      1679      1633      1629      1250      1253      1122      1248
 -1       261    4    0STEEL
 -2       385       169       393       505       110         9        83       331      1681      1680
 -2      1672      1640      1641      1682      1676      1627      1242      1237      1241      1109
 -1       262    4    0STEEL
 -2       385       386       508       505       169       170       395       393      1685      1684
 -2      1683      1640      1681      1689      1690      1672      1686      1687      1688      1680
 -1       263    4    0STEEL
 -2       386       155       377       508       170        24       148       395      1692      1501
 -2      1691      1684      1689      1575      1574      1690      1693      1573      1694      1687
 -1       264    4    0STEEL
 -2       377       378       510       508       148       147       396       395      1512      1696
 -2      1695      1691      1574      1581      1699      1690      1580      1697      1698      1694
 -1       265    4    0STEEL
 -2       378       156       383       510       147        23       168       396      1520      1701
 -2      1700      1696      1581      1586      1704      1699      1585      1702      1703      1697
 -1       266    4    0STEEL
 -2       508       510       506       505       395       396       394       393      1695      1705
 -2      1628      1683      1690      1699      1673      1672      1698      1706      1674      1688
 -1       267    4    0STEEL
 -2       510       383       382       506       396       168       167       394      1700      1707
 -2      1632      1705      1699      1704      1677      1673      1703      1708      1678      1706
 -1       268    4    0STEEL
 -2       388       391       508       505       162       163       386       385      1710      1709
 -2      1683      1651      1653      1713      1684      1640      1711      1712      1685      1652
 -1       269    4    0STEEL
 -2       391       139       377       508       163        21       155       386      1714      1506
 -2      1691      1709      1713      1502      1501      1684      1715      1507      1692      1712
 -1       270    4    0STEEL
 -2       382       383       510       506       165       166       392       390      1707      1700
 -2      1705      1632      1668      1719      1720      1666      1716      1717      1718      1667
 -1       271    4    0STEEL
 -2       383       156       378       510       166        22       140       392      1701      1520
 -2      1696      1700      1719      1524      1516      1720      1721      1521      1722      1717
 -1       272    4    0STEEL
 -2       506       510       508       505       390       392       391       388      1705      1695
 -2      1683      1628      1666      1720      1709      1651      1718      1723      1710      1671
 -1       273    4    0STEEL
 -2       510       378       377       508       392       140       139       391      1696      1512
 -2      1691      1695      1720      1516      1506      1709      1722      1513      1714      1723
 -1       274    4    0STEEL
 -2       397        81       262       512       157         2        28       380      1726       539
 -2      1725      1724      1727       543       535      1728      1624       540      1617      1625
 -1       275    4    0STEEL
 -2       398        82       264       511       397        81       262       512      1731       740
 -2      1730      1729      1732       741       736      1733      1726       539      1725      1724
 -1       276    4    0STEEL
 -2       262       261       515       512        28        27       379       380       531      1735
 -2      1734      1725       535       525      1736      1728       532      1619      1618      1617
 -1       277    4    0STEEL
 -2       261        78       400       515        27         1       158       379       520      1738
 -2      1737      1735       525       526      1739      1736       521      1637      1638      1619
 -1       278    4    0STEEL
 -2       264       263       513       511       262       261       515       512       735      1741
 -2      1740      1730       736       729      1742      1733       531      1735      1734      1725
 -1       279    4    0STEEL
 -2       263        77       401       513       261        78       400       515       728      1744
 -2      1743      1741       729       730      1745      1742       520      1738      1737      1735
 -1       280    4    0STEEL
 -2       400       171       403       515       158        25       159       379      1748      1747
 -2      1746      1737      1739      1749      1750      1736      1647      1646      1648      1638
 -1       281    4    0STEEL
 -2       515       403       404       512       379       159       160       380      1746      1752
 -2      1751      1734      1736      1750      1753      1728      1648      1665      1661      1618
 -1       282    4    0STEEL
 -2       401       172       405       513       400       171       403       515      1756      1755
 -2      1754      1743      1745      1757      1758      1742      1748      1747      1746      1737
 -1       283    4    0STEEL
 -2       513       405       406       511       515       403       404       512      1754      1760
 -2      1759      1740      1742      1758      1761      1733      1746      1752      1751      1734
 -1       284    4    0STEEL
 -2       404       174       397       512       160        26       157       380      1763      1762
 -2      1724      1751      1753      1764      1727      1728      1660      1659      1625      1661
 -1       285    4    0STEEL
 -2       406       175       398       511       404       174       397       512      1766      1765
 -2      1729      1759      1761      1767      1732      1733      1763      1762      1724      1751
 -1       286    4    0STEEL
 -2       409       410       513       511        51        52       263       264      1770      1769
 -2      1740      1768      1772      1771      1741      1730       863       857       735       864
 -1       287    4    0STEEL
 -2       410       177       401       513        52         8        77       263      1774      1773
 -2      1743      1769      1771      1775      1744      1741       856       858       728       857
 -1       288    4    0STEEL
 -2       398       179       409       511        82         5        51       264      1777      1776
 -2      1768      1729      1731      1778      1772      1730       869       868       864       740
 -1       289    4    0STEEL
 -2       410       411       516       513       177       178       402       401      1781      1780
 -2      1779      1769      1774      1785      1786      1743      1782      1783      1784      1773
 -1       290    4    0STEEL
 -2       411       125       356       516       178        17       138       402      1788      1458
 -2      1787      1780      1785      1462      1387      1786      1789      1463      1790      1783
 -1       291    4    0STEEL
 -2       409       412       514       511       410       411       516       513      1793      1792
 -2      1791      1768      1770      1794      1795      1740      1781      1780      1779      1769
 -1       292    4    0STEEL
 -2       412       126       355       514       411       125       356       516      1797      1451
 -2      1796      1792      1794      1457      1379      1795      1788      1458      1787      1780
 -1       293    4    0STEEL
 -2       356       116       407       516       138        14       173       402      1383      1799
 -2      1798      1787      1387      1388      1802      1786      1391      1800      1801      1790
 -1       294    4    0STEEL
 -2       516       407       405       513       402       173       172       401      1798      1803
 -2      1754      1779      1786      1802      1755      1743      1801      1804      1756      1784
 -1       295    4    0STEEL
 -2       355       115       408       514       356       116       407       516      1373      1806
 -2      1805      1796      1379      1380      1807      1795      1383      1799      1798      1787
 -1       296    4    0STEEL
 -2       514       408       406       511       516       407       405       513      1805      1808
 -2      1759      1791      1795      1807      1760      1740      1798      1803      1754      1779
 -1       297    4    0STEEL
 -2       398       399       514       511       179       180       412       409      1810      1809
 -2      1791      1729      1777      1813      1792      1768      1811      1812      1793      1776
 -1       298    4    0STEEL
 -2       399       136       355       514       180        20       126       412      1814      1368
 -2      1796      1809      1813      1452      1451      1792      1815      1450      1797      1812
 -1       299    4    0STEEL
 -2       406       408       514       511       175       176       399       398      1808      1805
 -2      1791      1759      1766      1818      1809      1729      1816      1817      1810      1765
 -1       300    4    0STEEL
 -2       408       115       355       514       176        13       136       399      1806      1373
 -2      1796      1805      1818      1369      1368      1809      1819      1374      1814      1817
 -3
    1PSTEP                         1           1           1          
  100CL  101 1.000000000        1819                     0    1           1
 -4  DISP        4    1
 -5  D1          1    2    1    0
 -5  D2          1    2    2    0
 -5  D3          1    2    3    0
 -5  ALL         1    2    0    0    1ALL
 -1         1 8.78305E-08-1.82771E-04 1.74172E-07
 -1         2 8.78213E-08-1.82771E-04-1.74160E-07
 -1         3 0.00000E+00 0.00000E+00 0.00000E+00
 -1         4 0.00000E+00 0.00000E+00 0.00000E+00
 -1         5 8.55062E-05-1.82078E-04-2.02669E-06
 -1         6 0.00000E+00 0.00000E+00 0.00000E+00
 -1         7 0.00000E+00 0.00000E+00 0.00000E+00
 -1         8 8.55061E-05-1.82078E-04 2.02668E-06
 -1         9-8.66314E-05-1.83687E-04-2.10342E-06
 -1        10-8.66313E-05-1.83687E-04 2.10343E-06
 -1        11 0.00000E+00 0.00000E+00 0.00000E+00
 -1        12 0.00000E+00 0.00000E+00 0.00000E+00
 -1        13 4.62562E-05-3.03375E-04-2.40215E-07
 -1        14 4.62562E-05-3.03375E-04 2.40196E-07
 -1        15 5.78916E-06-3.95562E-04 5.15940E-07
 -1        16 5.78915E-06-3.95562E-04-5.15935E-07
 -1        17 1.04808E-04-3.03781E-04 9.43776E-07
 -1        18 4.77733E-06-4.21635E-04 3.84248E-07
 -1        19 4.77732E-06-4.21635E-04-3.84234E-07
 -1        20 1.04808E-04-3.03781E-04-9.43769E-07
 -1        21-4.18155E-05-3.14234E-04 3.13075E-07
 -1        22-4.18156E-05-3.14234E-04-3.13079E-07
 -1        23-1.01303E-04-3.12644E-04-2.04288E-07
 -1        24-1.01303E-04-3.12644E-04 2.04299E-07
 -1        25-8.27521E-07-2.19578E-04 3.20292E-07
 -1        26-8.27441E-07-2.19578E-04-3.20294E-07
 -1        27 3.42782E-08-1.82764E-04 5.84895E-08
 -1        28 3.41996E-08-1.82764E-04-5.84877E-08
 -1        29 2.00431E-07-1.56687E-04-1.02839E-07
 -1        30 1.84331E-07-1.31854E-04-5.58346E-08
 -1        31 1.35259E-07-1.08522E-04-2.76721E-08
 -1        32 8.66855E-08-8.68206E-05-1.20405E-08
 -1        33 5.01334E-08-6.69148E-05-4.16355E-09
 -1        34 2.62654E-08-4.90021E-05-6.60878E-10
 -1        35 1.22354E-08-3.33008E-05 5.98171E-10
 -1        36 4.77893E-09-2.00638E-05 8.34281E-10
 -1        37 1.28903E-09-9.65027E-06 6.77102E-10
 -1        38-1.32940E-12-2.60020E-06 3.97453E-10
 -1        39 0.00000E+00 0.00000E+00 0.00000E+00
 -1        40 0.00000E+00 0.00000E+00 0.00000E+00
 -1        41-1.33719E-12-2.60020E-06-3.97464E-10
 -1        42 1.28901E-09-9.65027E-06-6.77128E-10
 -1        43 4.77890E-09-2.00638E-05-8.34331E-10
 -1        44 1.22353E-08-3.33008E-05-5.98256E-10
 -1        45 2.62654E-08-4.90021E-05 6.60714E-10
 -1        46 5.01334E-08-6.69148E-05 4.16333E-09
 -1        47 8.66855E-08-8.68206E-05 1.20400E-08
 -1        48 1.35259E-07-1.08522E-04 2.76717E-08
 -1        49 1.84335E-07-1.31854E-04 5.58349E-08
 -1        50 2.00424E-07-1.56687E-04 1.02836E-07
 -1        51 8.56152E-05-1.82668E-04-6.89204E-07
 -1        52 8.56152E-05-1.82668E-04 6.89229E-07
 -1        53 1.30794E-05-7.05559E-06-4.42107E-06
 -1        54 2.33899E-05-1.50266E-05-4.62704E-06
 -1        55 3.33294E-05-2.53959E-05-4.30135E-06
 -1        56 4.26060E-05-3.82446E-05-3.91425E-06
 -1        57 5.10776E-05-5.34916E-05-3.54373E-06
 -1        58 5.87150E-05-7.09292E-05-3.17253E-06
 -1        59 6.55060E-05-9.03224E-05-2.80075E-06
 -1        60 7.14582E-05-1.11408E-04-2.44224E-06
 -1        61 7.66232E-05-1.33892E-04-2.13612E-06
 -1        62 8.11734E-05-1.57483E-04-1.95951E-06
 -1        63 0.00000E+00 0.00000E+00 0.00000E+00
 -1        64 0.00000E+00 0.00000E+00 0.00000E+00
 -1        65 8.11734E-05-1.57483E-04 1.95950E-06
 -1        66 7.66232E-05-1.33892E-04 2.13612E-06
 -1        67 7.14582E-05-1.11408E-04 2.44224E-06
 -1        68 6.55060E-05-9.03224E-05 2.80075E-06
 -1        69 5.87150E-05-7.09292E-05 3.17253E-06
 -1        70 5.10776E-05-5.34916E-05 3.54373E-06
 -1        71 4.26060E-05-3.82446E-05 3.91425E-06
 -1        72 3.33294E-05-2.53959E-05 4.30135E-06
 -1        73 2.33899E-05-1.50266E-05 4.62704E-06
 -1        74 1.30794E-05-7.05559E-06 4.42107E-06
 -1        75 0.00000E+00 0.00000E+00 0.00000E+00
 -1        76 0.00000E+00 0.00000E+00 0.00000E+00
 -1        77 5.41811E-05-1.81133E-04 9.44582E-07
 -1        78 2.52627E-05-1.81775E-04 2.24206E-07
 -1        79 0.00000E+00 0.00000E+00 0.00000E+00
 -1        80 0.00000E+00 0.00000E+00 0.00000E+00
 -1        81 2.52628E-05-1.81775E-04-2.24221E-07
 -1        82 5.41811E-05-1.81133E-04-9.44587E-07
 -1        83-8.68378E-05-1.84408E-04-7.06907E-07
 -1        84-8.68377E-05-1.84408E-04 7.06934E-07
 -1        85-8.20381E-05-1.58154E-04 2.09471E-06
 -1        86-7.71886E-05-1.34093E-04 2.26037E-06
 -1        87-7.17911E-05-1.11411E-04 2.53111E-06
 -1        88-6.56839E-05-9.02624E-05 2.85654E-06
 -1        89-5.88003E-05-7.08639E-05 3.20410E-06
 -1        90-5.11129E-05-5.34407E-05 3.55992E-06
 -1        91-4.26168E-05-3.82108E-05 3.92161E-06
 -1        92-3.33299E-05-2.53760E-05 4.30408E-06
 -1        93-2.33872E-05-1.50165E-05 4.62755E-06
 -1        94-1.30769E-05-7.05199E-06 4.42055E-06
 -1        95 0.00000E+00 0.00000E+00 0.00000E+00
 -1        96 0.00000E+00 0.00000E+00 0.00000E+00
 -1        97-1.30769E-05-7.05199E-06-4.42055E-06
 -1        98-2.33872E-05-1.50165E-05-4.62755E-06
 -1        99-3.33299E-05-2.53760E-05-4.30408E-06
 -1       100-4.26168E-05-3.82108E-05-3.92161E-06
 -1       101-5.11129E-05-5.34407E-05-3.55992E-06
 -1       102-5.88003E-05-7.08639E-05-3.20410E-06
 -1       103-6.56839E-05-9.02624E-05-2.85653E-06
 -1       104-7.17911E-05-1.11411E-04-2.53111E-06
 -1       105-7.71886E-05-1.34093E-04-2.26037E-06
 -1       106-8.20381E-05-1.58154E-04-2.09472E-06
 -1       107 0.00000E+00 0.00000E+00 0.00000E+00
 -1       108 0.00000E+00 0.00000E+00 0.00000E+00
 -1       109-2.50352E-05-1.82847E-04 7.93287E-08
 -1       110-5.42121E-05-1.82694E-04-7.81161E-07
 -1       111 0.00000E+00 0.00000E+00 0.00000E+00
 -1       112 0.00000E+00 0.00000E+00 0.00000E+00
 -1       113-5.42121E-05-1.82694E-04 7.81142E-07
 -1       114-2.50352E-05-1.82847E-04-7.93486E-08
 -1       115 4.61341E-05-3.03638E-04-1.00931E-07
 -1       116 4.61341E-05-3.03638E-04 1.00916E-07
 -1       117 4.18937E-05-3.41312E-04 2.31914E-06
 -1       118 3.03950E-05-3.70991E-04 3.23632E-06
 -1       119 1.70525E-05-3.88711E-04 2.65321E-06
 -1       120 5.84487E-06-3.95678E-04 1.67604E-07
 -1       121 5.84487E-06-3.95678E-04-1.67599E-07
 -1       122 1.70525E-05-3.88711E-04-2.65320E-06
 -1       123 3.03950E-05-3.70991E-04-3.23632E-06
 -1       124 4.18937E-05-3.41312E-04-2.31915E-06
 -1       125 1.04892E-04-3.04096E-04 3.09617E-07
 -1       126 1.04892E-04-3.04096E-04-3.09620E-07
 -1       127 2.90669E-05-4.18252E-04-8.65490E-07
 -1       128 6.14429E-05-4.02174E-04-1.25977E-06
 -1       129 9.28108E-05-3.62719E-04-6.39856E-07
 -1       130 4.82461E-06-4.21581E-04-1.30774E-07
 -1       131 4.82461E-06-4.21581E-04 1.30787E-07
 -1       132 9.28108E-05-3.62719E-04 6.39855E-07
 -1       133 6.14429E-05-4.02174E-04 1.25978E-06
 -1       134 2.90669E-05-4.18252E-04 8.65501E-07
 -1       135 5.08321E-06-4.08518E-04-4.45843E-07
 -1       136 7.55058E-05-3.03472E-04-5.67906E-07
 -1       137 5.08321E-06-4.08518E-04 4.45851E-07
 -1       138 7.55058E-05-3.03472E-04 5.67868E-07
 -1       139-4.17511E-05-3.14284E-04 1.07175E-07
 -1       140-4.17512E-05-3.14284E-04-1.07190E-07
 -1       141-3.46314E-05-3.51374E-04 1.63000E-06
 -1       142-2.07599E-05-3.78477E-04 2.37375E-06
 -1       143-5.95416E-06-3.92646E-04 1.66611E-06
 -1       144-5.95415E-06-3.92646E-04-1.66611E-06
 -1       145-2.07599E-05-3.78477E-04-2.37375E-06
 -1       146-3.46314E-05-3.51374E-04-1.63000E-06
 -1       147-1.01440E-04-3.12728E-04-5.22331E-08
 -1       148-1.01440E-04-3.12728E-04 5.22262E-08
 -1       149-1.95844E-05-4.20773E-04-1.66300E-06
 -1       150-5.25777E-05-4.07517E-04-2.14327E-06
 -1       151-8.58964E-05-3.70654E-04-1.64593E-06
 -1       152-8.58964E-05-3.70654E-04 1.64593E-06
 -1       153-5.25777E-05-4.07517E-04 2.14328E-06
 -1       154-1.95844E-05-4.20773E-04 1.66302E-06
 -1       155-7.14874E-05-3.13049E-04 2.74503E-07
 -1       156-7.14874E-05-3.13049E-04-2.74540E-07
 -1       157-1.85715E-07-2.02121E-04-2.43444E-07
 -1       158-1.85756E-07-2.02121E-04 2.43399E-07
 -1       159-8.95302E-07-2.19231E-04 1.07346E-07
 -1       160-8.95581E-07-2.19232E-04-1.07379E-07
 -1       161-1.66519E-05-2.26795E-04 2.13736E-06
 -1       162-3.00872E-05-2.45772E-04 3.10557E-06
 -1       163-3.95618E-05-2.75970E-04 2.36832E-06
 -1       164-1.66518E-05-2.26795E-04-2.13746E-06
 -1       165-3.00871E-05-2.45772E-04-3.10546E-06
 -1       166-3.95619E-05-2.75970E-04-2.36841E-06
 -1       167-9.27145E-05-2.18299E-04 2.14779E-06
 -1       168-9.88939E-05-2.60770E-04 1.46076E-06
 -1       169-9.27146E-05-2.18298E-04-2.14791E-06
 -1       170-9.88939E-05-2.60770E-04-1.46071E-06
 -1       171 1.54529E-05-2.23666E-04-1.45808E-06
 -1       172 3.01179E-05-2.39424E-04-2.42000E-06
 -1       173 4.15165E-05-2.66659E-04-1.77158E-06
 -1       174 1.54530E-05-2.23665E-04 1.45798E-06
 -1       175 3.01180E-05-2.39423E-04 2.42009E-06
 -1       176 4.15164E-05-2.66659E-04 1.77150E-06
 -1       177 9.16388E-05-2.14499E-04 2.39733E-06
 -1       178 9.92010E-05-2.53877E-04 2.29596E-06
 -1       179 9.16389E-05-2.14499E-04-2.39747E-06
 -1       180 9.92010E-05-2.53877E-04-2.29592E-06
 -1       181 1.62610E-07-1.56916E-04 3.43490E-08
 -1       182 1.62671E-07-1.56916E-04-3.43491E-08
 -1       183 1.60625E-07-1.32208E-04 1.86153E-08
 -1       184 1.60606E-07-1.32208E-04-1.86163E-08
 -1       185 1.21543E-07-1.08956E-04 9.22645E-09
 -1       186 1.21548E-07-1.08956E-04-9.22748E-09
 -1       187 7.94642E-08-8.73236E-05 4.02121E-09
 -1       188 7.94631E-08-8.73236E-05-4.02165E-09
 -1       189 4.67149E-08-6.74836E-05 1.39689E-09
 -1       190 4.67151E-08-6.74836E-05-1.39721E-09
 -1       191 2.48868E-08-4.96379E-05 2.26947E-10
 -1       192 2.48868E-08-4.96379E-05-2.27114E-10
 -1       193 1.18423E-08-3.40059E-05-1.95291E-10
 -1       194 1.18423E-08-3.40059E-05 1.95191E-10
 -1       195 4.79882E-09-2.08388E-05-2.75977E-10
 -1       196 4.79883E-09-2.08388E-05 2.75923E-10
 -1       197 1.44684E-09-1.04567E-05-2.24308E-10
 -1       198 1.44684E-09-1.04567E-05 2.24279E-10
 -1       199 1.70277E-10-3.26640E-06-1.29839E-10
 -1       200 1.70278E-10-3.26640E-06 1.29827E-10
 -1       201 8.12910E-05-1.57892E-04 6.65780E-07
 -1       202 8.12910E-05-1.57892E-04-6.65776E-07
 -1       203 7.67698E-05-1.34273E-04 7.18327E-07
 -1       204 7.67698E-05-1.34273E-04-7.18327E-07
 -1       205 7.16300E-05-1.11833E-04 8.16050E-07
 -1       206 7.16300E-05-1.11833E-04-8.16049E-07
 -1       207 6.56909E-05-9.08132E-05 9.33750E-07
 -1       208 6.56909E-05-9.08132E-05-9.33750E-07
 -1       209 5.89051E-05-7.14888E-05 1.05721E-06
 -1       210 5.89051E-05-7.14888E-05-1.05721E-06
 -1       211 5.12714E-05-5.41172E-05 1.18121E-06
 -1       212 5.12714E-05-5.41172E-05-1.18121E-06
 -1       213 4.27949E-05-3.89316E-05 1.30905E-06
 -1       214 4.27949E-05-3.89316E-05-1.30905E-06
 -1       215 3.35119E-05-2.61524E-05 1.45252E-06
 -1       216 3.35119E-05-2.61524E-05-1.45252E-06
 -1       217 2.32970E-05-1.58663E-05 1.61219E-06
 -1       218 2.32970E-05-1.58663E-05-1.61219E-06
 -1       219 1.25708E-05-8.07801E-06 1.62328E-06
 -1       220 1.25708E-05-8.07801E-06-1.62328E-06
 -1       221 2.51779E-05-1.56323E-04 5.60864E-07
 -1       222 2.41693E-05-1.31910E-04 7.20879E-07
 -1       223 2.25852E-05-1.08801E-04 8.37604E-07
 -1       224 2.06083E-05-8.72165E-05 9.50146E-07
 -1       225 1.83182E-05-6.73802E-05 1.06696E-06
 -1       226 1.57404E-05-4.95203E-05 1.18938E-06
 -1       227 1.28755E-05-3.38630E-05 1.32008E-06
 -1       228 9.75251E-06-2.06526E-05 1.47073E-06
 -1       229 6.40924E-06-1.01536E-05 1.61592E-06
 -1       230 3.23886E-06-2.86350E-06 1.54074E-06
 -1       231 5.22099E-05-1.56347E-04 1.21448E-06
 -1       232 4.94583E-05-1.32483E-04 1.42666E-06
 -1       233 4.60682E-05-1.09726E-04 1.64594E-06
 -1       234 4.20883E-05-8.83742E-05 1.87985E-06
 -1       235 3.75400E-05-6.87190E-05 2.12231E-06
 -1       236 3.24281E-05-5.10220E-05 2.36954E-06
 -1       237 2.67449E-05-3.55194E-05 2.62465E-06
 -1       238 2.05219E-05-2.24308E-05 2.90737E-06
 -1       239 1.37393E-05-1.19093E-05 3.17783E-06
 -1       240 7.15342E-06-4.26243E-06 3.09967E-06
 -1       241 2.51779E-05-1.56323E-04-5.60864E-07
 -1       242 2.41693E-05-1.31910E-04-7.20881E-07
 -1       243 2.25852E-05-1.08801E-04-8.37605E-07
 -1       244 2.06083E-05-8.72165E-05-9.50147E-07
 -1       245 1.83182E-05-6.73802E-05-1.06696E-06
 -1       246 1.57404E-05-4.95203E-05-1.18938E-06
 -1       247 1.28755E-05-3.38630E-05-1.32008E-06
 -1       248 9.75251E-06-2.06526E-05-1.47073E-06
 -1       249 6.40924E-06-1.01536E-05-1.61592E-06
 -1       250 3.23886E-06-2.86350E-06-1.54074E-06
 -1       251 5.22099E-05-1.56347E-04-1.21447E-06
 -1       252 4.94583E-05-1.32483E-04-1.42666E-06
 -1       253 4.60682E-05-1.09726E-04-1.64594E-06
 -1       254 4.20883E-05-8.83742E-05-1.87985E-06
 -1       255 3.75400E-05-6.87190E-05-2.12231E-06
 -1       256 3.24281E-05-5.10220E-05-2.36954E-06
 -1       257 2.67449E-05-3.55194E-05-2.62465E-06
 -1       258 2.05219E-05-2.24308E-05-2.90737E-06
 -1       259 1.37393E-05-1.19093E-05-3.17783E-06
 -1       260 7.15342E-06-4.26243E-06-3.09967E-06
 -1       261 2.55490E-05-1.81984E-04 6.39940E-08
 -1       262 2.55488E-05-1.81984E-04-6.39853E-08
 -1       263 5.44121E-05-1.81659E-04 3.08593E-07
 -1       264 5.44120E-05-1.81659E-04-3.08576E-07
 -1       265 0.00000E+00 0.00000E+00 0.00000E+00
 -1       266 0.00000E+00 0.00000E+00 0.00000E+00
 -1       267 0.00000E+00 0.00000E+00 0.00000E+00
 -1       268 0.00000E+00 0.00000E+00 0.00000E+00
 -1       269-8.21991E-05-1.58666E-04-7.09607E-07
 -1       270-8.21991E-05-1.58666E-04 7.09610E-07
 -1       271-7.73466E-05-1.34544E-04-7.59931E-07
 -1       272-7.73466E-05-1.34544E-04 7.59932E-07
 -1       273-7.19603E-05-1.11877E-04-8.46477E-07
 -1       274-7.19603E-05-1.11877E-04 8.46478E-07
 -1       275-6.58622E-05-9.07746E-05-9.53043E-07
 -1       276-6.58622E-05-9.07746E-05 9.53044E-07
 -1       277-5.89842E-05-7.14335E-05-1.06822E-06
 -1       278-5.89842E-05-7.14335E-05 1.06822E-06
 -1       279-5.13021E-05-5.40702E-05-1.18690E-06
 -1       280-5.13021E-05-5.40702E-05 1.18690E-06
 -1       281-4.28028E-05-3.88988E-05-1.31167E-06
 -1       282-4.28028E-05-3.88988E-05 1.31167E-06
 -1       283-3.35107E-05-2.61325E-05-1.45351E-06
 -1       284-3.35107E-05-2.61325E-05 1.45351E-06
 -1       285-2.32934E-05-1.58558E-05-1.61238E-06
 -1       286-2.32934E-05-1.58558E-05 1.61238E-06
 -1       287-1.25678E-05-8.07387E-06-1.62309E-06
 -1       288-1.25678E-05-8.07387E-06 1.62309E-06
 -1       289-2.48775E-05-1.56733E-04-3.93070E-07
 -1       290-2.39162E-05-1.32012E-04-6.36965E-07
 -1       291-2.24096E-05-1.08780E-04-8.00800E-07
 -1       292-2.05001E-05-8.71619E-05-9.37227E-07
 -1       293-1.82579E-05-6.73281E-05-1.06476E-06
 -1       294-1.57102E-05-4.94817E-05-1.19110E-06
 -1       295-1.28623E-05-3.38382E-05-1.32260E-06
 -1       296-9.74801E-06-2.06384E-05-1.47285E-06
 -1       297-6.40857E-06-1.01465E-05-1.61734E-06
 -1       298-3.23933E-06-2.86083E-06-1.54149E-06
 -1       299-5.23087E-05-1.56948E-04-1.16261E-06
 -1       300-4.95560E-05-1.32631E-04-1.42572E-06
 -1       301-4.61441E-05-1.09693E-04-1.66168E-06
 -1       302-4.21391E-05-8.82923E-05-1.89707E-06
 -1       303-3.75706E-05-6.86415E-05-2.13578E-06
 -1       304-3.24450E-05-5.09648E-05-2.37853E-06
 -1       305-2.67535E-05-3.54828E-05-2.63001E-06
 -1       306-2.05258E-05-2.24099E-05-2.91022E-06
 -1       307-1.37411E-05-1.18990E-05-3.17912E-06
 -1       308-7.15401E-06-4.25880E-06-3.10002E-06
 -1       309-2.48775E-05-1.56733E-04 3.93071E-07
 -1       310-2.39162E-05-1.32012E-04 6.36963E-07
 -1       311-2.24096E-05-1.08780E-04 8.00800E-07
 -1       312-2.05001E-05-8.71619E-05 9.37227E-07
 -1       313-1.82579E-05-6.73281E-05 1.06476E-06
 -1       314-1.57102E-05-4.94817E-05 1.19110E-06
 -1       315-1.28623E-05-3.38382E-05 1.32260E-06
 -1       316-9.74801E-06-2.06384E-05 1.47285E-06
 -1       317-6.40857E-06-1.01465E-05 1.61734E-06
 -1       318-3.23933E-06-2.86083E-06 1.54149E-06
 -1       319-5.23087E-05-1.56948E-04 1.16262E-06
 -1       320-4.95560E-05-1.32631E-04 1.42572E-06
 -1       321-4.61441E-05-1.09693E-04 1.66168E-06
 -1       322-4.21391E-05-8.82923E-05 1.89707E-06
 -1       323-3.75706E-05-6.86415E-05 2.13578E-06
 -1       324-3.24450E-05-5.09648E-05 2.37853E-06
 -1       325-2.67535E-05-3.54828E-05 2.63001E-06
 -1       326-2.05258E-05-2.24099E-05 2.91022E-06
 -1       327-1.37411E-05-1.18990E-05 3.17912E-06
 -1       328-7.15401E-06-4.25880E-06 3.10002E-06
 -1       329-2.54263E-05-1.83103E-04 3.74298E-08
 -1       330-2.54265E-05-1.83102E-04-3.74202E-08
 -1       331-5.45443E-05-1.83309E-04-2.54870E-07
 -1       332-5.45444E-05-1.83309E-04 2.54895E-07
 -1       333 0.00000E+00 0.00000E+00 0.00000E+00
 -1       334 0.00000E+00 0.00000E+00 0.00000E+00
 -1       335 0.00000E+00 0.00000E+00 0.00000E+00
 -1       336 0.00000E+00 0.00000E+00 0.00000E+00
 -1       337 4.23470E-05-3.40176E-04-6.69788E-07
 -1       338 4.23470E-05-3.40176E-04 6.69789E-07
 -1       339 3.17428E-05-3.69652E-04-9.33344E-07
 -1       340 3.17428E-05-3.69652E-04 9.33344E-07
 -1       341 1.84406E-05-3.88180E-04-7.58027E-07
 -1       342 1.84406E-05-3.88180E-04 7.58030E-07
 -1       343 9.32928E-05-3.61782E-04 1.40402E-07
 -1       344 9.32928E-05-3.61782E-04-1.40403E-07
 -1       345 6.25948E-05-4.01044E-04 3.24821E-07
 -1       346 6.25948E-05-4.01044E-04-3.24814E-07
 -1       347 3.01916E-05-4.17741E-04 2.05846E-07
 -1       348 3.01916E-05-4.17741E-04-2.05835E-07
 -1       349 6.71663E-05-3.52347E-04-7.47710E-07
 -1       350 4.55072E-05-3.86991E-04-8.43624E-07
 -1       351 2.26189E-05-4.03684E-04-7.73331E-07
 -1       352 6.71663E-05-3.52347E-04 7.47714E-07
 -1       353 4.55072E-05-3.86991E-04 8.43626E-07
 -1       354 2.26190E-05-4.03684E-04 7.73339E-07
 -1       355 7.54865E-05-3.03760E-04-1.92567E-07
 -1       356 7.54865E-05-3.03760E-04 1.92582E-07
 -1       357 5.13263E-06-4.08551E-04-1.49227E-07
 -1       358 5.13263E-06-4.08551E-04 1.49236E-07
 -1       359-3.51488E-05-3.50107E-04-4.32767E-07
 -1       360-3.51487E-05-3.50107E-04 4.32772E-07
 -1       361-2.21187E-05-3.77127E-04-6.49083E-07
 -1       362-2.21187E-05-3.77127E-04 6.49085E-07
 -1       363-7.27007E-06-3.92146E-04-4.36589E-07
 -1       364-7.27007E-06-3.92146E-04 4.36593E-07
 -1       365-8.64210E-05-3.69603E-04 4.74618E-07
 -1       366-8.64210E-05-3.69603E-04-4.74615E-07
 -1       367-5.37320E-05-4.06372E-04 6.20539E-07
 -1       368-5.37320E-05-4.06372E-04-6.20530E-07
 -1       369-2.06455E-05-4.20283E-04 4.76169E-07
 -1       370-2.06455E-05-4.20283E-04-4.76156E-07
 -1       371-6.02117E-05-3.61049E-04 1.11856E-07
 -1       372-3.65185E-05-3.93148E-04 3.00381E-08
 -1       373-1.26908E-05-4.06764E-04 1.13255E-07
 -1       374-6.02117E-05-3.61049E-04-1.11848E-07
 -1       375-3.65185E-05-3.93148E-04-3.00349E-08
 -1       376-1.26908E-05-4.06764E-04-1.13246E-07
 -1       377-7.15231E-05-3.13130E-04 8.87704E-08
 -1       378-7.15231E-05-3.13130E-04-8.87522E-08
 -1       379-2.49127E-07-2.01827E-04 8.17532E-08
 -1       380-2.48883E-07-2.01827E-04-8.17326E-08
 -1       381-2.15918E-05-2.08194E-04-1.02132E-06
 -1       382-5.10798E-05-2.21561E-04-5.54820E-07
 -1       383-6.48125E-05-2.65154E-04-6.30065E-07
 -1       384-2.15919E-05-2.08194E-04 1.02130E-06
 -1       385-5.10797E-05-2.21561E-04 5.54810E-07
 -1       386-6.48125E-05-2.65154E-04 6.30081E-07
 -1       387-1.75429E-05-2.26915E-04 6.49563E-07
 -1       388-3.10592E-05-2.46920E-04 9.14580E-07
 -1       389-1.75429E-05-2.26915E-04-6.49556E-07
 -1       390-3.10592E-05-2.46920E-04-9.14553E-07
 -1       391-3.98565E-05-2.77285E-04 6.70788E-07
 -1       392-3.98567E-05-2.77285E-04-6.70770E-07
 -1       393-9.30608E-05-2.19470E-04-6.68483E-07
 -1       394-9.30611E-05-2.19470E-04 6.68513E-07
 -1       395-9.92216E-05-2.61970E-04-3.91892E-07
 -1       396-9.92215E-05-2.61970E-04 3.91847E-07
 -1       397 2.14160E-05-2.06069E-04 5.25623E-07
 -1       398 5.14151E-05-2.17391E-04 9.48537E-08
 -1       399 6.64017E-05-2.57351E-04-5.38236E-08
 -1       400 2.14160E-05-2.06069E-04-5.25628E-07
 -1       401 5.14152E-05-2.17391E-04-9.48835E-08
 -1       402 6.64018E-05-2.57351E-04 5.38582E-08
 -1       403 1.61964E-05-2.23742E-04-4.28517E-07
 -1       404 1.61964E-05-2.23741E-04 4.28517E-07
 -1       405 3.09661E-05-2.40522E-04-6.94259E-07
 -1       406 3.09660E-05-2.40522E-04 6.94285E-07
 -1       407 4.17415E-05-2.68063E-04-4.63723E-07
 -1       408 4.17414E-05-2.68063E-04 4.63739E-07
 -1       409 9.18185E-05-2.15592E-04-7.59579E-07
 -1       410 9.18189E-05-2.15592E-04 7.59615E-07
 -1       411 9.93830E-05-2.55191E-04 6.61436E-07
 -1       412 9.93831E-05-2.55191E-04-6.61479E-07
 -1       413 2.53097E-05-1.56618E-04 1.83288E-07
 -1       414 2.53097E-05-1.56618E-04-1.83290E-07
 -1       415 2.42513E-05-1.32276E-04 2.39307E-07
 -1       416 2.42513E-05-1.32276E-04-2.39307E-07
 -1       417 2.26575E-05-1.09233E-04 2.78865E-07
 -1       418 2.26575E-05-1.09233E-04-2.78865E-07
 -1       419 2.06824E-05-8.77149E-05 3.16588E-07
 -1       420 2.06824E-05-8.77149E-05-3.16589E-07
 -1       421 1.83957E-05-6.79452E-05 3.55647E-07
 -1       422 1.83957E-05-6.79452E-05-3.55647E-07
 -1       423 1.58223E-05-5.01525E-05 3.96671E-07
 -1       424 1.58223E-05-5.01525E-05-3.96671E-07
 -1       425 1.29594E-05-3.45633E-05 4.41981E-07
 -1       426 1.29594E-05-3.45633E-05-4.41981E-07
 -1       427 9.83625E-06-2.14201E-05 4.97805E-07
 -1       428 9.83625E-06-2.14201E-05-4.97805E-07
 -1       429 6.39217E-06-1.09541E-05 5.58865E-07
 -1       430 6.39217E-06-1.09541E-05-5.58865E-07
 -1       431 2.97072E-06-3.53087E-06 5.49253E-07
 -1       432 2.97072E-06-3.53087E-06-5.49253E-07
 -1       433 5.23576E-05-1.56751E-04 4.02940E-07
 -1       434 5.23576E-05-1.56751E-04-4.02948E-07
 -1       435 4.95926E-05-1.32875E-04 4.74390E-07
 -1       436 4.95926E-05-1.32875E-04-4.74389E-07
 -1       437 4.62099E-05-1.10159E-04 5.47980E-07
 -1       438 4.62099E-05-1.10159E-04-5.47980E-07
 -1       439 4.22379E-05-8.88691E-05 6.26253E-07
 -1       440 4.22379E-05-8.88691E-05-6.26253E-07
 -1       441 3.76943E-05-6.92803E-05 7.07324E-07
 -1       442 3.76943E-05-6.92803E-05-7.07324E-07
 -1       443 3.25868E-05-5.16494E-05 7.90071E-07
 -1       444 3.25868E-05-5.16494E-05-7.90071E-07
 -1       445 2.69039E-05-3.62102E-05 8.77912E-07
 -1       446 2.69039E-05-3.62102E-05-8.77912E-07
 -1       447 2.06748E-05-2.31827E-05 9.80516E-07
 -1       448 2.06748E-05-2.31827E-05-9.80516E-07
 -1       449 1.36995E-05-1.26802E-05 1.09415E-06
 -1       450 1.36995E-05-1.26802E-05-1.09415E-06
 -1       451 6.65855E-06-4.93320E-06 1.08470E-06
 -1       452 6.65855E-06-4.93320E-06-1.08470E-06
 -1       453-2.50793E-05-1.57067E-04-1.27430E-07
 -1       454-2.50792E-05-1.57067E-04 1.27428E-07
 -1       455-2.40397E-05-1.32407E-04-2.11461E-07
 -1       456-2.40397E-05-1.32407E-04 2.11461E-07
 -1       457-2.25040E-05-1.09232E-04-2.66625E-07
 -1       458-2.25040E-05-1.09232E-04 2.66625E-07
 -1       459-2.05847E-05-8.76720E-05-3.12271E-07
 -1       460-2.05847E-05-8.76720E-05 3.12270E-07
 -1       461-1.83397E-05-6.78995E-05-3.54886E-07
 -1       462-1.83397E-05-6.78995E-05 3.54886E-07
 -1       463-1.57934E-05-5.01171E-05-3.97220E-07
 -1       464-1.57934E-05-5.01171E-05 3.97220E-07
 -1       465-1.29462E-05-3.45399E-05-4.42804E-07
 -1       466-1.29462E-05-3.45399E-05 4.42804E-07
 -1       467-9.83132E-06-2.14064E-05-4.98503E-07
 -1       468-9.83132E-06-2.14064E-05 4.98503E-07
 -1       469-6.39103E-06-1.09471E-05-5.59332E-07
 -1       470-6.39103E-06-1.09471E-05 5.59332E-07
 -1       471-2.97083E-06-3.52814E-06-5.49495E-07
 -1       472-2.97083E-06-3.52814E-06 5.49495E-07
 -1       473-5.25110E-05-1.57429E-04-3.86590E-07
 -1       474-5.25109E-05-1.57429E-04 3.86582E-07
 -1       475-4.97142E-05-1.33078E-04-4.74656E-07
 -1       476-4.97142E-05-1.33078E-04 4.74658E-07
 -1       477-4.62929E-05-1.10161E-04-5.53486E-07
 -1       478-4.62929E-05-1.10161E-04 5.53486E-07
 -1       479-4.22887E-05-8.88070E-05-6.32051E-07
 -1       480-4.22887E-05-8.88070E-05 6.32051E-07
 -1       481-3.77226E-05-6.92130E-05-7.11789E-07
 -1       482-3.77226E-05-6.92130E-05 7.11789E-07
 -1       483-3.26012E-05-5.15969E-05-7.93020E-07
 -1       484-3.26012E-05-5.15969E-05 7.93021E-07
 -1       485-2.69105E-05-3.61754E-05-8.79656E-07
 -1       486-2.69105E-05-3.61754E-05 8.79656E-07
 -1       487-2.06775E-05-2.31622E-05-9.81438E-07
 -1       488-2.06775E-05-2.31622E-05 9.81439E-07
 -1       489-1.37005E-05-1.26698E-05-1.09456E-06
 -1       490-1.37005E-05-1.26698E-05 1.09456E-06
 -1       491-6.65876E-06-4.92931E-06-1.08481E-06
 -1       492-6.65876E-06-4.92931E-06 1.08481E-06
 -1       493 6.76121E-05-3.51363E-04-2.65995E-07
 -1       494 6.76121E-05-3.51363E-04 2.65990E-07
 -1       495 4.67044E-05-3.85805E-04-3.04133E-07
 -1       496 4.67044E-05-3.85805E-04 3.04139E-07
 -1       497 2.38145E-05-4.03193E-04-2.74438E-07
 -1       498 2.38145E-05-4.03193E-04 2.74446E-07
 -1       499-6.07083E-05-3.59943E-04 2.07829E-08
 -1       500-6.07083E-05-3.59943E-04-2.07847E-08
 -1       501-3.77237E-05-3.91949E-04-1.32261E-08
 -1       502-3.77237E-05-3.91949E-04 1.32350E-08
 -1       503-1.38219E-05-4.06298E-04 2.18768E-08
 -1       504-1.38219E-05-4.06298E-04-2.18680E-08
 -1       505-5.18005E-05-2.22525E-04 2.00902E-07
 -1       506-5.17538E-05-2.22573E-04-2.02489E-07
 -1       507-2.23017E-05-2.08420E-04 3.56310E-07
 -1       508-6.50917E-05-2.66333E-04 2.15676E-07
 -1       509-2.22850E-05-2.08424E-04-3.56354E-07
 -1       510-6.50835E-05-2.66363E-04-2.15911E-07
 -1       511 5.20011E-05-2.18296E-04 4.79688E-08
 -1       512 2.19907E-05-2.06241E-04 1.90788E-07
 -1       513 5.19550E-05-2.18341E-04-4.93674E-08
 -1       514 6.65803E-05-2.58618E-04-1.23826E-08
 -1       515 2.19735E-05-2.06246E-04-1.90805E-07
 -1       516 6.65736E-05-2.58647E-04 1.21589E-08
 -1       517 2.53699E-05-1.68944E-04 4.34626E-07
 -1       518 2.52623E-05-1.56506E-04 3.71282E-07
 -1       519 2.55606E-05-1.69197E-04 1.39896E-07
 -1       520 2.54559E-05-1.81902E-04 1.39673E-07
 -1       521 5.39905E-08-1.82752E-04 1.16515E-07
 -1       522 1.26343E-07-1.69743E-04 4.52782E-08
 -1       523 1.76560E-07-1.56828E-04 6.86213E-08
 -1       524 1.71965E-07-1.69613E-04 1.35489E-07
 -1       525 1.25141E-05-1.82403E-04 4.18887E-08
 -1       526 1.23634E-05-1.82346E-04 1.42229E-07
 -1       527 1.25977E-05-1.56763E-04 1.04526E-07
 -1       528 1.25386E-05-1.56517E-04 3.17264E-07
 -1       529 2.53261E-05-1.56655E-04-2.82763E-12
 -1       530 2.55606E-05-1.69197E-04-1.39893E-07
 -1       531 2.55800E-05-1.82010E-04 1.80620E-11
 -1       532 2.77088E-08-1.82766E-04 2.10481E-12
 -1       533 1.26307E-07-1.69743E-04-4.52782E-08
 -1       534 1.57950E-07-1.56944E-04-1.56570E-12
 -1       535 1.25141E-05-1.82403E-04-4.18881E-08
 -1       536 1.25976E-05-1.56763E-04-1.04526E-07
 -1       537 2.52623E-05-1.56506E-04-3.71282E-07
 -1       538 2.53699E-05-1.68944E-04-4.34635E-07
 -1       539 2.54558E-05-1.81903E-04-1.39690E-07
 -1       540 5.39454E-08-1.82752E-04-1.16510E-07
 -1       541 1.71968E-07-1.69613E-04-1.35484E-07
 -1       542 1.76592E-07-1.56828E-04-6.86207E-08
 -1       543 1.23634E-05-1.82346E-04-1.42235E-07
 -1       544 1.25386E-05-1.56517E-04-3.17264E-07
 -1       545 2.47714E-05-1.43969E-04 6.53242E-07
 -1       546 2.42208E-05-1.32138E-04 4.79910E-07
 -1       547 2.48694E-05-1.44300E-04 2.16534E-07
 -1       548 1.70903E-07-1.44391E-04 2.55331E-08
 -1       549 1.69556E-07-1.32075E-04 3.72204E-08
 -1       550 2.01269E-07-1.44090E-04 7.64621E-08
 -1       551 1.21266E-05-1.32198E-04 1.28364E-07
 -1       552 1.20939E-05-1.31844E-04 3.86532E-07
 -1       553 2.42616E-05-1.32322E-04 2.08330E-13
 -1       554 2.48694E-05-1.44300E-04-2.16536E-07
 -1       555 1.70923E-07-1.44391E-04-2.55344E-08
 -1       556 1.57638E-07-1.32252E-04-6.37424E-13
 -1       557 1.21266E-05-1.32198E-04-1.28366E-07
 -1       558 2.42208E-05-1.32138E-04-4.79912E-07
 -1       559 2.47714E-05-1.43969E-04-6.53241E-07
 -1       560 2.01268E-07-1.44090E-04-7.64617E-08
 -1       561 1.69545E-07-1.32075E-04-3.72208E-08
 -1       562 1.20939E-05-1.31844E-04-3.86532E-07
 -1       563 2.34382E-05-1.20178E-04 7.81659E-07
 -1       564 2.26305E-05-1.09071E-04 5.58179E-07
 -1       565 2.35123E-05-1.20578E-04 2.60203E-07
 -1       566 1.43262E-07-1.20388E-04 1.32666E-08
 -1       567 1.26655E-07-1.08793E-04 1.84506E-08
 -1       568 1.61497E-07-1.19991E-04 3.98519E-08
 -1       569 1.13288E-05-1.09022E-04 1.44404E-07
 -1       570 1.12987E-05-1.08590E-04 4.33579E-07
 -1       571 2.26665E-05-1.09287E-04-4.05226E-13
 -1       572 2.35123E-05-1.20578E-04-2.60203E-07
 -1       573 1.43255E-07-1.20388E-04-1.32674E-08
 -1       574 1.19811E-07-1.09011E-04-4.44637E-13
 -1       575 1.13288E-05-1.09022E-04-1.44405E-07
 -1       576 2.26305E-05-1.09071E-04-5.58180E-07
 -1       577 2.34382E-05-1.20178E-04-7.81659E-07
 -1       578 1.61496E-07-1.19991E-04-3.98528E-08
 -1       579 1.26656E-07-1.08793E-04-1.84515E-08
 -1       580 1.12987E-05-1.08590E-04-4.33580E-07
 -1       581 2.16405E-05-9.78041E-05 8.93708E-07
 -1       582 2.06547E-05-8.75279E-05 6.33330E-07
 -1       583 2.17130E-05-9.82693E-05 2.97739E-07
 -1       584 9.97994E-08-9.79266E-05 6.20283E-09
 -1       585 8.21622E-08-8.71350E-05 8.03387E-09
 -1       586 1.09877E-07-9.74569E-05 1.85917E-08
 -1       587 1.03247E-05-8.74261E-05 1.60707E-07
 -1       588 1.02912E-05-8.69257E-05 4.82281E-07
 -1       589 2.06915E-05-8.77772E-05-1.43151E-13
 -1       590 2.17130E-05-9.82693E-05-2.97740E-07
 -1       591 9.98010E-08-9.79266E-05-6.20356E-09
 -1       592 7.85535E-08-8.73864E-05-2.50933E-13
 -1       593 1.03247E-05-8.74261E-05-1.60708E-07
 -1       594 2.06546E-05-8.75279E-05-6.33330E-07
 -1       595 2.16405E-05-9.78041E-05-8.93709E-07
 -1       596 1.09877E-07-9.74569E-05-1.85922E-08
 -1       597 8.21616E-08-8.71350E-05-8.03433E-09
 -1       598 1.02912E-05-8.69257E-05-4.82281E-07
 -1       599 1.95006E-05-7.70655E-05 1.00792E-06
 -1       600 1.83668E-05-6.77333E-05 7.11291E-07
 -1       601 1.95763E-05-7.75972E-05 3.35901E-07
 -1       602 6.16554E-08-7.71670E-05 2.45822E-09
 -1       603 4.79864E-08-6.72703E-05 2.78317E-09
 -1       604 6.66990E-08-7.66311E-05 7.35474E-09
 -1       605 9.16424E-06-6.76053E-05 1.78818E-07
 -1       606 9.12717E-06-6.70383E-05 5.36470E-07
 -1       607 1.84055E-05-6.80158E-05-1.05290E-13
 -1       608 1.95763E-05-7.75972E-05-3.35901E-07
 -1       609 6.16549E-08-7.71670E-05-2.45858E-09
 -1       610 4.62809E-08-6.75547E-05-1.57667E-13
 -1       611 9.16424E-06-6.76053E-05-1.78819E-07
 -1       612 1.83668E-05-6.77333E-05-7.11291E-07
 -1       613 1.95006E-05-7.70655E-05-1.00792E-06
 -1       614 6.66990E-08-7.66311E-05-7.35510E-09
 -1       615 4.79865E-08-6.72703E-05-2.78346E-09
 -1       616 9.12717E-06-6.70383E-05-5.36470E-07
 -1       617 1.70651E-05-5.81890E-05 1.12742E-06
 -1       618 1.57913E-05-4.99153E-05 7.92904E-07
 -1       619 1.71447E-05-5.87875E-05 3.75759E-07
 -1       620 3.44768E-08-5.82979E-05 6.75434E-10
 -1       621 2.53987E-08-4.93995E-05 4.45926E-10
 -1       622 3.67013E-08-5.76959E-05 2.00631E-09
 -1       623 7.86386E-06-4.97709E-05 1.98706E-07
 -1       624 7.82355E-06-4.91367E-05 5.95800E-07
 -1       625 1.58320E-05-5.02316E-05-5.68007E-14
 -1       626 1.71447E-05-5.87875E-05-3.75759E-07
 -1       627 3.44769E-08-5.82979E-05-6.75668E-10
 -1       628 2.47113E-08-4.97175E-05-8.53462E-14
 -1       629 7.86386E-06-4.97709E-05-1.98706E-07
 -1       630 1.57913E-05-4.99153E-05-7.92904E-07
 -1       631 1.70651E-05-5.81890E-05-1.12742E-06
 -1       632 3.67014E-08-5.76959E-05-2.00650E-09
 -1       633 2.53987E-08-4.93995E-05-4.46091E-10
 -1       634 7.82355E-06-4.91367E-05-5.95800E-07
 -1       635 1.43428E-05-4.14016E-05 1.25316E-06
 -1       636 1.29304E-05-3.43009E-05 8.82149E-07
 -1       637 1.44266E-05-4.20677E-05 4.18157E-07
 -1       638 1.73946E-08-4.15298E-05-5.14298E-11
 -1       639 1.19866E-08-3.37414E-05-3.95774E-10
 -1       640 1.81807E-08-4.08596E-05-1.67421E-10
 -1       641 6.42606E-06-3.41494E-05 2.21323E-07
 -1       642 6.38319E-06-3.34455E-05 6.60862E-07
 -1       643 1.29717E-05-3.46507E-05-3.27536E-14
 -1       644 1.44266E-05-4.20677E-05-4.18157E-07
 -1       645 1.73946E-08-4.15298E-05 5.13014E-11
 -1       646 1.17910E-08-3.40937E-05-5.06961E-14
 -1       647 6.42606E-06-3.41494E-05-2.21323E-07
 -1       648 1.29304E-05-3.43009E-05-8.82149E-07
 -1       649 1.43428E-05-4.14016E-05-1.25316E-06
 -1       650 1.81807E-08-4.08596E-05 1.67302E-10
 -1       651 1.19866E-08-3.37414E-05 3.95680E-10
 -1       652 6.38319E-06-3.34455E-05-6.60863E-07
 -1       653 1.13452E-05-2.69360E-05 1.39272E-06
 -1       654 9.80689E-06-2.11346E-05 9.84222E-07
 -1       655 1.14323E-05-2.76708E-05 4.67542E-07
 -1       656 7.69556E-09-2.70968E-05-2.64634E-10
 -1       657 4.79050E-09-2.05524E-05-5.54240E-10
 -1       658 7.83001E-09-2.63550E-05-8.01114E-10
 -1       659 4.85062E-06-2.09828E-05 2.49767E-07
 -1       660 4.80956E-06-2.02099E-05 7.38206E-07
 -1       661 9.83622E-06-2.15157E-05-1.67869E-14
 -1       662 1.14323E-05-2.76708E-05-4.67542E-07
 -1       663 7.69557E-09-2.70968E-05 2.64560E-10
 -1       664 4.80202E-09-2.09354E-05-2.78211E-14
 -1       665 4.85062E-06-2.09828E-05-2.49767E-07
 -1       666 9.80689E-06-2.11346E-05-9.84222E-07
 -1       667 1.13452E-05-2.69360E-05-1.39272E-06
 -1       668 7.83004E-09-2.63550E-05 8.01048E-10
 -1       669 4.79051E-09-2.05524E-05 5.54187E-10
 -1       670 4.80956E-06-2.02099E-05-7.38206E-07
 -1       671 8.08288E-06-1.50377E-05 1.54863E-06
 -1       672 6.44112E-06-1.06685E-05 1.11348E-06
 -1       673 8.13913E-06-1.58330E-05 5.28683E-07
 -1       674 2.75454E-09-1.52706E-05-2.60705E-10
 -1       675 1.38303E-09-1.01671E-05-4.53401E-10
 -1       676 2.64307E-09-1.44652E-05-7.85102E-10
 -1       677 3.15133E-06-1.05680E-05 2.80784E-07
 -1       678 3.15841E-06-9.76280E-06 8.09400E-07
 -1       679 6.40195E-06-1.10469E-05-8.17395E-15
 -1       680 8.13913E-06-1.58330E-05-5.28683E-07
 -1       681 2.75454E-09-1.52706E-05 2.60665E-10
 -1       682 1.46244E-09-1.05492E-05-1.46707E-14
 -1       683 3.15133E-06-1.05680E-05-2.80784E-07
 -1       684 6.44112E-06-1.06685E-05-1.11348E-06
 -1       685 8.08288E-06-1.50377E-05-1.54863E-06
 -1       686 2.64309E-09-1.44652E-05 7.85066E-10
 -1       687 1.38304E-09-1.01671E-05 4.53374E-10
 -1       688 3.15841E-06-9.76280E-06-8.09400E-07
 -1       689 4.81350E-06-6.08443E-06 1.68729E-06
 -1       690 3.01931E-06-3.34975E-06 1.00569E-06
 -1       691 4.67130E-06-6.85307E-06 5.59070E-07
 -1       692 6.08757E-10-6.40680E-06-1.78152E-10
 -1       693 1.27201E-10-3.07894E-06-2.50875E-10
 -1       694 4.28063E-10-5.63587E-06-5.56497E-10
 -1       695 1.45585E-06-3.32087E-06 2.74830E-07
 -1       696 1.59293E-06-2.65290E-06 7.65050E-07
 -1       697 2.90663E-06-3.59956E-06 7.92602E-15
 -1       698 4.67130E-06-6.85307E-06-5.59070E-07
 -1       699 6.08759E-10-6.40680E-06 1.78133E-10
 -1       700 1.93219E-10-3.33468E-06-5.94416E-15
 -1       701 1.45585E-06-3.32087E-06-2.74830E-07
 -1       702 3.01931E-06-3.34975E-06-1.00569E-06
 -1       703 4.81350E-06-6.08443E-06-1.68729E-06
 -1       704 4.28074E-10-5.63587E-06 5.56480E-10
 -1       705 1.27204E-10-3.07894E-06 2.50864E-10
 -1       706 1.59293E-06-2.65290E-06-7.65050E-07
 -1       707 1.64752E-06-8.05978E-07 1.22777E-06
 -1       708 0.00000E+00 0.00000E+00 0.00000E+00
 -1       709 1.35286E-06-1.24774E-06 2.73375E-07
 -1       710-1.85958E-11-1.10106E-06-5.32543E-11
 -1       711 0.00000E+00 0.00000E+00 0.00000E+00
 -1       712-1.33900E-10-6.58950E-07-2.29648E-10
 -1       713 0.00000E+00 0.00000E+00 0.00000E+00
 -1       714 0.00000E+00 0.00000E+00 0.00000E+00
 -1       715 0.00000E+00 0.00000E+00 0.00000E+00
 -1       716 1.35286E-06-1.24774E-06-2.73375E-07
 -1       717-1.85954E-11-1.10106E-06 5.32493E-11
 -1       718 0.00000E+00 0.00000E+00 0.00000E+00
 -1       719 0.00000E+00 0.00000E+00 0.00000E+00
 -1       720 0.00000E+00 0.00000E+00 0.00000E+00
 -1       721 1.64752E-06-8.05978E-07-1.22777E-06
 -1       722-1.33896E-10-6.58950E-07 2.29643E-10
 -1       723 0.00000E+00 0.00000E+00 0.00000E+00
 -1       724 0.00000E+00 0.00000E+00 0.00000E+00
 -1       725 5.33017E-05-1.68618E-04 1.09812E-06
 -1       726 5.23024E-05-1.56597E-04 8.06311E-07
 -1       727 5.34798E-05-1.69065E-04 3.62552E-07
 -1       728 5.43251E-05-1.81462E-04 6.24143E-07
 -1       729 3.95701E-05-1.81703E-04 1.62171E-07
 -1       730 3.92735E-05-1.81319E-04 5.10724E-07
 -1       731 3.85588E-05-1.56579E-04 2.85365E-07
 -1       732 3.84023E-05-1.56224E-04 8.65616E-07
 -1       733 5.23762E-05-1.56803E-04 1.02989E-11
 -1       734 5.34797E-05-1.69065E-04-3.62549E-07
 -1       735 5.44375E-05-1.81722E-04-6.07628E-11
 -1       736 3.95702E-05-1.81703E-04-1.62177E-07
 -1       737 3.85588E-05-1.56579E-04-2.85365E-07
 -1       738 5.23024E-05-1.56597E-04-8.06326E-07
 -1       739 5.33016E-05-1.68618E-04-1.09812E-06
 -1       740 5.43250E-05-1.81462E-04-6.24067E-07
 -1       741 3.92734E-05-1.81319E-04-5.10702E-07
 -1       742 3.84023E-05-1.56224E-04-8.65621E-07
 -1       743 5.09202E-05-1.44295E-04 1.32256E-06
 -1       744 4.95430E-05-1.32726E-04 9.49416E-07
 -1       745 5.10567E-05-1.44683E-04 4.39695E-07
 -1       746 3.67189E-05-1.32486E-04 3.55458E-07
 -1       747 3.66039E-05-1.32105E-04 1.07002E-06
 -1       748 4.96091E-05-1.32925E-04-1.79595E-12
 -1       749 5.10567E-05-1.44683E-04-4.39696E-07
 -1       750 3.67189E-05-1.32486E-04-3.55459E-07
 -1       751 4.95430E-05-1.32726E-04-9.49412E-07
 -1       752 5.09202E-05-1.44295E-04-1.32256E-06
 -1       753 3.66039E-05-1.32105E-04-1.07002E-06
 -1       754 4.78391E-05-1.20949E-04 1.53472E-06
 -1       755 4.61580E-05-1.09995E-04 1.09633E-06
 -1       756 4.79764E-05-1.21358E-04 5.10745E-07
 -1       757 3.42502E-05-1.09606E-04 4.13594E-07
 -1       758 3.41402E-05-1.09173E-04 1.24266E-06
 -1       759 4.62278E-05-1.10214E-04 4.54338E-13
 -1       760 4.79764E-05-1.21358E-04-5.10745E-07
 -1       761 3.42502E-05-1.09606E-04-4.13594E-07
 -1       762 4.61580E-05-1.09995E-04-1.09633E-06
 -1       763 4.78391E-05-1.20949E-04-1.53472E-06
 -1       764 3.41402E-05-1.09173E-04-1.24266E-06
 -1       765 4.41498E-05-9.88564E-05 1.76152E-06
 -1       766 4.21828E-05-8.86831E-05 1.25281E-06
 -1       767 4.42959E-05-9.93192E-05 5.86694E-07
 -1       768 3.12815E-05-8.81941E-05 4.71788E-07
 -1       769 3.11678E-05-8.76975E-05 1.41619E-06
 -1       770 4.22569E-05-8.89311E-05-1.11167E-14
 -1       771 4.42959E-05-9.93192E-05-5.86694E-07
 -1       772 3.12815E-05-8.81941E-05-4.71788E-07
 -1       773 4.21828E-05-8.86831E-05-1.25281E-06
 -1       774 4.41498E-05-9.88564E-05-1.76152E-06
 -1       775 3.11678E-05-8.76975E-05-1.41619E-06
 -1       776 3.98847E-05-7.83181E-05 2.00033E-06
 -1       777 3.76375E-05-6.90697E-05 1.41476E-06
 -1       778 4.00370E-05-7.88459E-05 6.66541E-07
 -1       779 2.78660E-05-6.85037E-05 5.31756E-07
 -1       780 2.77482E-05-6.79406E-05 1.59557E-06
 -1       781 3.77143E-05-6.93505E-05 3.98019E-14
 -1       782 4.00370E-05-7.88459E-05-6.66542E-07
 -1       783 2.78660E-05-6.85037E-05-5.31756E-07
 -1       784 3.76375E-05-6.90697E-05-1.41476E-06
 -1       785 3.98847E-05-7.83181E-05-2.00033E-06
 -1       786 2.77482E-05-6.79406E-05-1.59557E-06
 -1       787 3.50547E-05-5.96106E-05 2.24546E-06
 -1       788 3.25269E-05-5.14142E-05 1.57959E-06
 -1       789 3.52111E-05-6.02051E-05 7.48303E-07
 -1       790 2.40221E-05-5.07785E-05 5.93759E-07
 -1       791 2.39001E-05-5.01490E-05 1.78035E-06
 -1       792 3.26059E-05-5.17280E-05 1.44857E-14
 -1       793 3.52111E-05-6.02051E-05-7.48303E-07
 -1       794 2.40221E-05-5.07785E-05-5.93759E-07
 -1       795 3.25269E-05-5.14142E-05-1.57959E-06
 -1       796 3.50547E-05-5.96106E-05-2.24546E-06
 -1       797 2.39001E-05-5.01490E-05-1.78035E-06
 -1       798 2.96570E-05-4.29824E-05 2.49522E-06
 -1       799 2.68496E-05-3.59506E-05 1.75314E-06
 -1       800 2.98172E-05-4.36420E-05 8.32504E-07
 -1       801 1.97500E-05-3.52533E-05 6.60676E-07
 -1       802 1.96249E-05-3.45573E-05 1.97526E-06
 -1       803 2.69281E-05-3.62963E-05 1.16025E-14
 -1       804 2.98172E-05-4.36420E-05-8.32504E-07
 -1       805 1.97500E-05-3.52533E-05-6.60676E-07
 -1       806 2.68496E-05-3.59506E-05-1.75314E-06
 -1       807 2.96570E-05-4.29824E-05-2.49522E-06
 -1       808 1.96249E-05-3.45573E-05-1.97526E-06
 -1       809 2.37009E-05-2.86626E-05 2.76281E-06
 -1       810 2.06173E-05-2.29022E-05 1.94254E-06
 -1       811 2.38628E-05-2.93855E-05 9.25605E-07
 -1       812 1.50457E-05-2.21427E-05 7.41418E-07
 -1       813 1.49289E-05-2.13857E-05 2.19394E-06
 -1       814 2.06751E-05-2.32774E-05 8.79068E-15
 -1       815 2.38628E-05-2.93855E-05-9.25605E-07
 -1       816 1.50457E-05-2.21427E-05-7.41418E-07
 -1       817 2.06173E-05-2.29022E-05-1.94254E-06
 -1       818 2.37009E-05-2.86626E-05-2.76281E-06
 -1       819 1.49289E-05-2.13857E-05-2.19394E-06
 -1       820 1.71765E-05-1.68335E-05 3.04563E-06
 -1       821 1.38032E-05-1.23914E-05 2.18026E-06
 -1       822 1.72782E-05-1.76118E-05 1.03928E-06
 -1       823 9.90798E-06-1.16581E-05 8.32479E-07
 -1       824 9.92547E-06-1.08725E-05 2.41369E-06
 -1       825 1.37215E-05-1.27752E-05 5.44455E-15
 -1       826 1.72782E-05-1.76118E-05-1.03928E-06
 -1       827 9.90798E-06-1.16581E-05-8.32479E-07
 -1       828 1.38032E-05-1.23914E-05-2.18026E-06
 -1       829 1.71765E-05-1.68335E-05-3.04563E-06
 -1       830 9.92547E-06-1.08725E-05-2.41369E-06
 -1       831 1.04281E-05-7.66989E-06 3.33961E-06
 -1       832 6.73789E-06-4.73433E-06 2.00544E-06
 -1       833 1.01741E-05-8.43145E-06 1.09759E-06
 -1       834 4.58143E-06-4.02811E-06 8.20631E-07
 -1       835 4.98174E-06-3.37158E-06 2.32979E-06
 -1       836 6.52830E-06-5.00592E-06 2.17845E-14
 -1       837 1.01741E-05-8.43145E-06-1.09759E-06
 -1       838 4.58143E-06-4.02811E-06-8.20631E-07
 -1       839 6.73789E-06-4.73433E-06-2.00544E-06
 -1       840 1.04281E-05-7.66989E-06-3.33961E-06
 -1       841 4.98174E-06-3.37158E-06-2.32979E-06
 -1       842 3.49264E-06-1.30850E-06 2.42619E-06
 -1       843 0.00000E+00 0.00000E+00 0.00000E+00
 -1       844 2.89726E-06-1.76767E-06 5.46901E-07
 -1       845 0.00000E+00 0.00000E+00 0.00000E+00
 -1       846 0.00000E+00 0.00000E+00 0.00000E+00
 -1       847 0.00000E+00 0.00000E+00 0.00000E+00
 -1       848 2.89726E-06-1.76767E-06-5.46901E-07
 -1       849 0.00000E+00 0.00000E+00 0.00000E+00
 -1       850 0.00000E+00 0.00000E+00 0.00000E+00
 -1       851 3.49264E-06-1.30850E-06-2.42619E-06
 -1       852 0.00000E+00 0.00000E+00 0.00000E+00
 -1       853 8.33195E-05-1.69644E-04 1.95266E-06
 -1       854 8.12347E-05-1.57732E-04 1.31638E-06
 -1       855 8.34282E-05-1.70119E-04 6.69349E-07
 -1       856 8.55188E-05-1.82438E-04 1.36465E-06
 -1       857 6.99574E-05-1.81988E-04 4.90401E-07
 -1       858 6.98518E-05-1.81402E-04 1.47342E-06
 -1       859 6.66409E-05-1.57209E-04 5.30774E-07
 -1       860 6.65254E-05-1.56790E-04 1.58872E-06
 -1       861 8.13093E-05-1.57946E-04 2.13895E-13
 -1       862 8.34282E-05-1.70119E-04-6.69334E-07
 -1       863 8.56408E-05-1.82743E-04 3.01487E-11
 -1       864 6.99574E-05-1.81988E-04-4.90398E-07
 -1       865 6.66409E-05-1.57209E-04-5.30774E-07
 -1       866 8.12347E-05-1.57732E-04-1.31638E-06
 -1       867 8.33196E-05-1.69644E-04-1.95267E-06
 -1       868 8.55188E-05-1.82438E-04-1.36465E-06
 -1       869 6.98518E-05-1.81402E-04-1.47342E-06
 -1       870 6.65254E-05-1.56790E-04-1.58871E-06
 -1       871 7.89512E-05-1.45564E-04 2.02546E-06
 -1       872 7.67196E-05-1.34126E-04 1.42845E-06
 -1       873 7.90833E-05-1.45946E-04 6.84449E-07
 -1       874 6.29337E-05-1.33483E-04 5.94822E-07
 -1       875 6.27864E-05-1.33092E-04 1.78407E-06
 -1       876 7.67874E-05-1.34323E-04 5.95843E-13
 -1       877 7.90833E-05-1.45946E-04-6.84449E-07
 -1       878 6.29337E-05-1.33483E-04-5.94821E-07
 -1       879 7.67196E-05-1.34126E-04-1.42845E-06
 -1       880 7.89512E-05-1.45564E-04-2.02546E-06
 -1       881 6.27864E-05-1.33092E-04-1.78407E-06
 -1       882 7.41281E-05-1.22494E-04 2.27866E-06
 -1       883 7.15766E-05-1.11672E-04 1.62920E-06
 -1       884 7.42890E-05-1.22892E-04 7.63094E-07
 -1       885 5.86368E-05-1.10907E-04 6.81608E-07
 -1       886 5.84639E-05-1.10476E-04 2.04597E-06
 -1       887 7.16496E-05-1.11887E-04 4.03253E-13
 -1       888 7.42890E-05-1.22892E-04-7.63094E-07
 -1       889 5.86368E-05-1.10907E-04-6.81608E-07
 -1       890 7.15766E-05-1.11672E-04-1.62920E-06
 -1       891 7.41281E-05-1.22494E-04-2.27866E-06
 -1       892 5.84639E-05-1.10476E-04-2.04597E-06
 -1       893 6.85834E-05-1.00671E-04 2.61830E-06
 -1       894 6.56330E-05-9.06287E-05 1.86706E-06
 -1       895 6.87633E-05-1.01128E-04 8.73377E-07
 -1       896 5.36704E-05-8.97439E-05 7.79983E-07
 -1       897 5.34845E-05-8.92510E-05 2.34105E-06
 -1       898 6.57120E-05-9.08748E-05 1.54438E-13
 -1       899 6.87633E-05-1.01128E-04-8.73377E-07
 -1       900 5.36704E-05-8.97439E-05-7.79983E-07
 -1       901 6.56330E-05-9.06287E-05-1.86706E-06
 -1       902 6.85834E-05-1.00671E-04-2.61830E-06
 -1       903 5.34845E-05-8.92510E-05-2.34105E-06
 -1       904 6.22157E-05-8.03971E-05 2.98621E-06
 -1       905 5.88448E-05-7.12789E-05 2.11469E-06
 -1       906 6.24039E-05-8.09225E-05 9.95132E-07
 -1       907 4.80037E-05-7.02757E-05 8.82325E-07
 -1       908 4.78128E-05-6.97155E-05 2.64765E-06
 -1       909 5.89274E-05-7.15588E-05 1.44670E-13
 -1       910 6.24039E-05-8.09225E-05-9.95132E-07
 -1       911 4.80037E-05-7.02757E-05-8.82326E-07
 -1       912 5.88448E-05-7.12789E-05-2.11469E-06
 -1       913 6.22157E-05-8.03971E-05-2.98621E-06
 -1       914 4.78128E-05-6.97155E-05-2.64765E-06
 -1       915 5.50016E-05-6.19505E-05 3.35859E-06
 -1       916 5.12077E-05-5.38831E-05 2.36204E-06
 -1       917 5.51936E-05-6.25436E-05 1.11900E-06
 -1       918 4.16337E-05-5.27613E-05 9.85985E-07
 -1       919 4.14401E-05-5.21352E-05 2.95703E-06
 -1       920 5.12928E-05-5.41953E-05 8.01647E-14
 -1       921 5.51936E-05-6.25436E-05-1.11900E-06
 -1       922 4.16337E-05-5.27613E-05-9.85985E-07
 -1       923 5.12077E-05-5.38831E-05-2.36204E-06
 -1       924 5.50016E-05-6.19505E-05-3.35859E-06
 -1       925 4.14401E-05-5.21352E-05-2.95703E-06
 -1       926 4.69434E-05-4.55808E-05 3.72933E-06
 -1       927 4.27370E-05-3.86728E-05 2.61384E-06
 -1       928 4.71369E-05-4.62367E-05 1.24332E-06
 -1       929 3.45590E-05-3.74406E-05 1.09325E-06
 -1       930 3.43659E-05-3.67519E-05 3.27012E-06
 -1       931 4.28224E-05-3.90177E-05 5.62093E-14
 -1       932 4.71369E-05-4.62367E-05-1.24332E-06
 -1       933 3.45590E-05-3.74406E-05-1.09325E-06
 -1       934 4.27370E-05-3.86728E-05-2.61384E-06
 -1       935 4.69434E-05-4.55808E-05-3.72933E-06
 -1       936 3.43659E-05-3.67519E-05-3.27012E-06
 -1       937 3.80675E-05-3.15102E-05 4.10611E-06
 -1       938 3.34543E-05-2.58690E-05 2.87460E-06
 -1       939 3.82607E-05-3.22308E-05 1.37550E-06
 -1       940 2.67842E-05-2.45082E-05 1.21745E-06
 -1       941 2.66065E-05-2.37576E-05 3.60650E-06
 -1       942 3.35082E-05-2.62476E-05 3.69673E-14
 -1       943 3.82607E-05-3.22308E-05-1.37550E-06
 -1       944 2.67842E-05-2.45082E-05-1.21745E-06
 -1       945 3.34543E-05-2.58690E-05-2.87460E-06
 -1       946 3.80675E-05-3.15102E-05-4.10611E-06
 -1       947 2.66065E-05-2.37576E-05-3.60650E-06
 -1       948 2.84132E-05-1.99093E-05 4.50131E-06
 -1       949 2.34270E-05-1.55267E-05 3.18093E-06
 -1       950 2.85133E-05-2.06845E-05 1.52665E-06
 -1       951 1.82271E-05-1.41709E-05 1.34195E-06
 -1       952 1.82428E-05-1.33628E-05 3.90556E-06
 -1       953 2.33345E-05-1.59774E-05 1.34060E-14
 -1       954 2.85133E-05-2.06845E-05-1.52665E-06
 -1       955 1.82271E-05-1.41709E-05-1.34195E-06
 -1       956 2.34270E-05-1.55267E-05-3.18093E-06
 -1       957 2.84132E-05-1.99093E-05-4.50131E-06
 -1       958 1.82428E-05-1.33628E-05-3.90556E-06
 -1       959 1.83827E-05-1.08727E-05 4.81819E-06
 -1       960 1.26341E-05-7.69104E-06 2.88128E-06
 -1       961 1.80978E-05-1.18232E-05 1.59099E-06
 -1       962 8.82345E-06-5.99096E-06 1.33186E-06
 -1       963 9.45316E-06-5.22631E-06 3.73218E-06
 -1       964 1.23895E-05-8.20160E-06 4.58818E-14
 -1       965 1.80978E-05-1.18232E-05-1.59099E-06
 -1       966 8.82345E-06-5.99096E-06-1.33186E-06
 -1       967 1.26341E-05-7.69104E-06-2.88128E-06
 -1       968 1.83827E-05-1.08727E-05-4.81819E-06
 -1       969 9.45316E-06-5.22631E-06-3.73218E-06
 -1       970 6.82992E-06-4.05802E-06 3.87906E-06
 -1       971 0.00000E+00 0.00000E+00 0.00000E+00
 -1       972 6.13505E-06-4.63730E-06 8.12824E-07
 -1       973 0.00000E+00 0.00000E+00 0.00000E+00
 -1       974 0.00000E+00 0.00000E+00 0.00000E+00
 -1       975 0.00000E+00 0.00000E+00 0.00000E+00
 -1       976 6.13505E-06-4.63730E-06-8.12824E-07
 -1       977 0.00000E+00 0.00000E+00 0.00000E+00
 -1       978 0.00000E+00 0.00000E+00 0.00000E+00
 -1       979 6.82992E-06-4.05802E-06-3.87906E-06
 -1       980 0.00000E+00 0.00000E+00 0.00000E+00
 -1       981-2.52951E-05-1.83004E-04 6.32775E-08
 -1       982-2.53594E-05-1.69919E-04-6.37349E-08
 -1       983-2.50055E-05-1.56941E-04-2.59474E-07
 -1       984-2.50810E-05-1.69622E-04-2.06802E-07
 -1       985-1.24126E-05-1.83016E-04 7.13908E-08
 -1       986-1.21552E-05-1.82936E-04 1.95857E-07
 -1       987-1.22928E-05-1.57002E-04-3.89957E-08
 -1       988-1.21598E-05-1.56737E-04-1.21212E-07
 -1       989-2.54700E-05-1.83133E-04 1.66394E-11
 -1       990-2.53595E-05-1.69919E-04 6.37381E-08
 -1       991-2.51044E-05-1.57109E-04-2.69770E-12
 -1       992-1.24126E-05-1.83016E-04-7.13842E-08
 -1       993-1.22929E-05-1.57002E-04 3.89943E-08
 -1       994-2.52952E-05-1.83004E-04-6.32944E-08
 -1       995-2.50810E-05-1.69622E-04 2.06792E-07
 -1       996-2.50055E-05-1.56941E-04 2.59474E-07
 -1       997-1.21552E-05-1.82936E-04-1.95876E-07
 -1       998-1.21598E-05-1.56737E-04 1.21215E-07
 -1       999-2.46385E-05-1.44557E-04-1.76572E-07
 -1      1000-2.39937E-05-1.32258E-04-4.24037E-07
 -1      1001-2.44858E-05-1.44191E-04-5.32721E-07
 -1      1002-1.18315E-05-1.32269E-04-9.34594E-08
 -1      1003-1.17528E-05-1.31900E-04-2.81762E-07
 -1      1004-2.46385E-05-1.44557E-04 1.76570E-07
 -1      1005-2.40553E-05-1.32456E-04 3.97443E-13
 -1      1006-1.18315E-05-1.32269E-04 9.34582E-08
 -1      1007-2.44858E-05-1.44191E-04 5.32721E-07
 -1      1008-2.39937E-05-1.32258E-04 4.24036E-07
 -1      1009-1.17528E-05-1.31900E-04 2.81762E-07
 -1      1010-2.33283E-05-1.20626E-04-2.41426E-07
 -1      1011-2.24687E-05-1.09063E-04-5.33672E-07
 -1      1012-2.32235E-05-1.20202E-04-7.25091E-07
 -1      1013-1.11087E-05-1.09022E-04-1.27540E-07
 -1      1014-1.10525E-05-1.08580E-04-3.82946E-07
 -1      1015-2.33283E-05-1.20626E-04 2.41426E-07
 -1      1016-2.25158E-05-1.09289E-04-3.67068E-13
 -1      1017-1.11087E-05-1.09022E-04 1.27540E-07
 -1      1018-2.32235E-05-1.20202E-04 7.25090E-07
 -1      1019-2.24687E-05-1.09063E-04 5.33672E-07
 -1      1020-1.10525E-05-1.08580E-04 3.82945E-07
 -1      1021-2.15889E-05-9.82396E-05-2.90216E-07
 -1      1022-2.05530E-05-8.74807E-05-6.24710E-07
 -1      1023-2.15010E-05-9.77591E-05-8.71086E-07
 -1      1024-1.01820E-05-8.74031E-05-1.53639E-07
 -1      1025-1.01351E-05-8.68967E-05-4.61096E-07
 -1      1026-2.15889E-05-9.82396E-05 2.90215E-07
 -1      1027-2.05952E-05-8.77358E-05-8.26607E-14
 -1      1028-1.01820E-05-8.74031E-05 1.53639E-07
 -1      1029-2.15010E-05-9.77591E-05 8.71086E-07
 -1      1030-2.05530E-05-8.74807E-05 6.24710E-07
 -1      1031-1.01351E-05-8.68967E-05 4.61095E-07
 -1      1032-1.95015E-05-7.75499E-05-3.33773E-07
 -1      1033-1.83092E-05-6.76852E-05-7.09806E-07
 -1      1034-1.94190E-05-7.70095E-05-1.00159E-06
 -1      1035-9.08096E-06-6.75809E-05-1.76571E-07
 -1      1036-9.03772E-06-6.70105E-05-5.29760E-07
 -1      1037-1.95015E-05-7.75499E-05 3.33773E-07
 -1      1038-1.83501E-05-6.79710E-05-8.91171E-14
 -1      1039-9.08096E-06-6.75809E-05 1.76571E-07
 -1      1040-1.94190E-05-7.70095E-05 1.00159E-06
 -1      1041-1.83092E-05-6.76852E-05 7.09806E-07
 -1      1042-9.03772E-06-6.70105E-05 5.29760E-07
 -1      1043-1.71040E-05-5.87462E-05-3.75857E-07
 -1      1044-1.57619E-05-4.98787E-05-7.94035E-07
 -1      1045-1.70220E-05-5.81432E-05-1.12778E-06
 -1      1046-7.81986E-06-4.97519E-05-1.98530E-07
 -1      1047-7.77719E-06-4.91160E-05-5.95299E-07
 -1      1048-1.71040E-05-5.87462E-05 3.75857E-07
 -1      1049-1.58032E-05-5.01966E-05-4.58800E-14
 -1      1050-7.81986E-06-4.97519E-05 1.98530E-07
 -1      1051-1.70220E-05-5.81432E-05 1.12778E-06
 -1      1052-1.57619E-05-4.98787E-05 7.94034E-07
 -1      1053-7.77719E-06-4.91160E-05 5.95299E-07
 -1      1054-1.44068E-05-4.20384E-05-4.18932E-07
 -1      1055-1.29172E-05-3.42770E-05-8.83818E-07
 -1      1056-1.43225E-05-4.13702E-05-1.25554E-06
 -1      1057-6.40535E-06-3.41368E-05-2.21838E-07
 -1      1058-6.36191E-06-3.34322E-05-6.62428E-07
 -1      1059-1.44068E-05-4.20384E-05 4.18932E-07
 -1      1060-1.29585E-05-3.46274E-05-2.96467E-14
 -1      1061-6.40535E-06-3.41368E-05 2.21838E-07
 -1      1062-1.43225E-05-4.13702E-05 1.25554E-06
 -1      1063-1.29172E-05-3.42770E-05 8.83818E-07
 -1      1064-6.36191E-06-3.34322E-05 6.62428E-07
 -1      1065-1.14240E-05-2.76526E-05-4.68333E-07
 -1      1066-9.80213E-06-2.11207E-05-9.85630E-07
 -1      1067-1.13372E-05-2.69169E-05-1.39513E-06
 -1      1068-4.84240E-06-2.09754E-05-2.50365E-07
 -1      1069-4.80148E-06-2.02022E-05-7.40009E-07
 -1      1070-1.14240E-05-2.76526E-05 4.68333E-07
 -1      1071-9.83124E-06-2.15020E-05-1.76101E-14
 -1      1072-4.84240E-06-2.09754E-05 2.50365E-07
 -1      1073-1.13372E-05-2.69169E-05 1.39513E-06
 -1      1074-9.80213E-06-2.11207E-05 9.85630E-07
 -1      1075-4.80148E-06-2.02022E-05 7.40009E-07
 -1      1076-8.13656E-06-1.58230E-05-5.29271E-07
 -1      1077-6.44017E-06-1.06614E-05-1.11442E-06
 -1      1078-8.08078E-06-1.50274E-05-1.55041E-06
 -1      1079-3.14899E-06-1.05642E-05-2.81242E-07
 -1      1080-3.15642E-06-9.75897E-06-8.10783E-07
 -1      1081-8.13656E-06-1.58230E-05 5.29271E-07
 -1      1082-6.40077E-06-1.10399E-05-9.78426E-15
 -1      1083-3.14899E-06-1.05642E-05 2.81242E-07
 -1      1084-8.08078E-06-1.50274E-05 1.55041E-06
 -1      1085-6.44017E-06-1.06614E-05 1.11442E-06
 -1      1086-3.15642E-06-9.75897E-06 8.10783E-07
 -1      1087-4.67103E-06-6.84845E-06-5.59417E-07
 -1      1088-3.01952E-06-3.34704E-06-1.00616E-06
 -1      1089-4.81367E-06-6.07983E-06-1.68838E-06
 -1      1090-1.45567E-06-3.31937E-06-2.75088E-07
 -1      1091-1.59310E-06-2.65142E-06-7.65840E-07
 -1      1092-4.67103E-06-6.84845E-06 5.59417E-07
 -1      1093-2.90669E-06-3.59683E-06-1.52646E-14
 -1      1094-1.45567E-06-3.31937E-06 2.75089E-07
 -1      1095-4.81367E-06-6.07983E-06 1.68838E-06
 -1      1096-3.01952E-06-3.34704E-06 1.00616E-06
 -1      1097-1.59310E-06-2.65142E-06 7.65840E-07
 -1      1098-1.35302E-06-1.24647E-06-2.73471E-07
 -1      1099 0.00000E+00 0.00000E+00 0.00000E+00
 -1      1100-1.64791E-06-8.04753E-07-1.22820E-06
 -1      1101 0.00000E+00 0.00000E+00 0.00000E+00
 -1      1102 0.00000E+00 0.00000E+00 0.00000E+00
 -1      1103-1.35302E-06-1.24647E-06 2.73472E-07
 -1      1104 0.00000E+00 0.00000E+00 0.00000E+00
 -1      1105 0.00000E+00 0.00000E+00 0.00000E+00
 -1      1106-1.64791E-06-8.04753E-07 1.22820E-06
 -1      1107 0.00000E+00 0.00000E+00 0.00000E+00
 -1      1108 0.00000E+00 0.00000E+00 0.00000E+00
 -1      1109-5.44197E-05-1.83082E-04-5.17179E-07
 -1      1110-5.36365E-05-1.70145E-04-3.30615E-07
 -1      1111-5.24342E-05-1.57248E-04-7.73171E-07
 -1      1112-5.33819E-05-1.69614E-04-9.99526E-07
 -1      1113-3.94932E-05-1.83159E-04-8.04012E-08
 -1      1114-3.90942E-05-1.82707E-04-2.64459E-07
 -1      1115-3.84733E-05-1.57170E-04-2.46064E-07
 -1      1116-3.82536E-05-1.56757E-04-7.45107E-07
 -1      1117-5.45827E-05-1.83383E-04-5.61990E-11
 -1      1118-5.36365E-05-1.70145E-04 3.30621E-07
 -1      1119-5.25366E-05-1.57490E-04 1.00681E-11
 -1      1120-3.94931E-05-1.83159E-04 8.03904E-08
 -1      1121-3.84733E-05-1.57170E-04 2.46067E-07
 -1      1122-5.44198E-05-1.83082E-04 5.17254E-07
 -1      1123-5.33820E-05-1.69614E-04 9.99533E-07
 -1      1124-5.24342E-05-1.57248E-04 7.73156E-07
 -1      1125-3.90942E-05-1.82707E-04 2.64493E-07
 -1      1126-3.82536E-05-1.56757E-04 7.45096E-07
 -1      1127-5.11989E-05-1.45076E-04-4.33662E-07
 -1      1128-4.96549E-05-1.32909E-04-9.49550E-07
 -1      1129-5.10253E-05-1.44621E-04-1.30197E-06
 -1      1130-3.66492E-05-1.32658E-04-3.39489E-07
 -1      1131-3.65006E-05-1.32234E-04-1.02089E-06
 -1      1132-5.11989E-05-1.45076E-04 4.33662E-07
 -1      1133-4.97338E-05-1.33135E-04-1.24087E-12
 -1      1134-3.66492E-05-1.32658E-04 3.39489E-07
 -1      1135-5.10253E-05-1.44621E-04 1.30197E-06
 -1      1136-4.96549E-05-1.32909E-04 9.49553E-07
 -1      1137-3.65006E-05-1.32234E-04 1.02089E-06
 -1      1138-4.80794E-05-1.21436E-04-5.14594E-07
 -1      1139-4.62379E-05-1.09985E-04-1.10707E-06
 -1      1140-4.79281E-05-1.20983E-04-1.54504E-06
 -1      1141-3.42026E-05-1.09604E-04-4.09022E-07
 -1      1142-3.40772E-05-1.09143E-04-1.22845E-06
 -1      1143-4.80794E-05-1.21436E-04 5.14595E-07
 -1      1144-4.63118E-05-1.10220E-04 4.73764E-13
 -1      1145-3.42026E-05-1.09604E-04 4.09022E-07
 -1      1146-4.79281E-05-1.20983E-04 1.54504E-06
 -1      1147-4.62379E-05-1.09985E-04 1.10707E-06
 -1      1148-3.40772E-05-1.09143E-04 1.22845E-06
 -1      1149-4.43620E-05-9.92777E-05-5.92720E-07
 -1      1150-4.22333E-05-8.86135E-05-1.26430E-06
 -1      1151-4.42132E-05-9.87883E-05-1.77918E-06
 -1      1152-3.12529E-05-8.81370E-05-4.71915E-07
 -1      1153-3.11335E-05-8.76239E-05-1.41652E-06
 -1      1154-4.43620E-05-9.92777E-05 5.92720E-07
 -1      1155-4.23075E-05-8.88715E-05 5.92396E-14
 -1      1156-3.12529E-05-8.81370E-05 4.71915E-07
 -1      1157-4.42132E-05-9.87883E-05 1.77918E-06
 -1      1158-4.22333E-05-8.86135E-05 1.26430E-06
 -1      1159-3.11335E-05-8.76239E-05 1.41652E-06
 -1      1160-4.00755E-05-7.87767E-05-6.71766E-07
 -1      1161-3.76666E-05-6.89984E-05-1.42367E-06
 -1      1162-3.99247E-05-7.82345E-05-2.01600E-06
 -1      1163-2.78506E-05-6.84431E-05-5.33341E-07
 -1      1164-2.77316E-05-6.78713E-05-1.60044E-06
 -1      1165-4.00755E-05-7.87767E-05 6.71767E-07
 -1      1166-3.77423E-05-6.92845E-05 5.78672E-14
 -1      1167-2.78506E-05-6.84431E-05 5.33341E-07
 -1      1168-3.99247E-05-7.82345E-05 2.01600E-06
 -1      1169-3.76666E-05-6.89984E-05 1.42367E-06
 -1      1170-2.77316E-05-6.78713E-05 1.60044E-06
 -1      1171-3.52316E-05-6.01441E-05-7.51995E-07
 -1      1172-3.25422E-05-5.13599E-05-1.58549E-06
 -1      1173-3.50777E-05-5.95426E-05-2.25666E-06
 -1      1174-2.40148E-05-5.07316E-05-5.95415E-07
 -1      1175-2.38932E-05-5.00979E-05-1.78546E-06
 -1      1176-3.52316E-05-6.01441E-05 7.51995E-07
 -1      1177-3.26200E-05-5.16761E-05 2.82682E-14
 -1      1178-2.40148E-05-5.07316E-05 5.95416E-07
 -1      1179-3.50777E-05-5.95426E-05 2.25666E-06
 -1      1180-3.25422E-05-5.13598E-05 1.58549E-06
 -1      1181-2.38932E-05-5.00979E-05 1.78546E-06
 -1      1182-2.98271E-05-4.35986E-05-8.34805E-07
 -1      1183-2.68569E-05-3.59150E-05-1.75665E-06
 -1      1184-2.96691E-05-4.29359E-05-2.50226E-06
 -1      1185-1.97472E-05-3.52223E-05-6.61945E-07
 -1      1186-1.96230E-05-3.45246E-05-1.97918E-06
 -1      1187-2.98271E-05-4.35986E-05 8.34805E-07
 -1      1188-2.69345E-05-3.62617E-05 1.63301E-14
 -1      1189-1.97472E-05-3.52223E-05 6.61945E-07
 -1      1190-2.96691E-05-4.29359E-05 2.50226E-06
 -1      1191-2.68569E-05-3.59150E-05 1.75665E-06
 -1      1192-1.96230E-05-3.45246E-05 1.97918E-06
 -1      1193-2.38671E-05-2.93584E-05-9.26895E-07
 -1      1194-2.06204E-05-2.28815E-05-1.94440E-06
 -1      1195-2.37068E-05-2.86346E-05-2.76679E-06
 -1      1196-1.50451E-05-2.21246E-05-7.42241E-07
 -1      1197-1.49291E-05-2.13670E-05-2.19648E-06
 -1      1198-2.38671E-05-2.93584E-05 9.26896E-07
 -1      1199-2.06776E-05-2.32571E-05 8.35060E-15
 -1      1200-1.50451E-05-2.21246E-05 7.42241E-07
 -1      1201-2.37068E-05-2.86346E-05 2.76679E-06
 -1      1202-2.06204E-05-2.28815E-05 1.94440E-06
 -1      1203-1.49291E-05-2.13670E-05 2.19648E-06
 -1      1204-1.72798E-05-1.75969E-05-1.03992E-06
 -1      1205-1.38045E-05-1.23810E-05-2.18109E-06
 -1      1206-1.71791E-05-1.68185E-05-3.04761E-06
 -1      1207-9.90825E-06-1.16489E-05-8.32936E-07
 -1      1208-9.92637E-06-1.08632E-05-2.41511E-06
 -1      1209-1.72798E-05-1.75969E-05 1.03992E-06
 -1      1210-1.37224E-05-1.27649E-05 4.67358E-15
 -1      1211-9.90825E-06-1.16489E-05 8.32936E-07
 -1      1212-1.71791E-05-1.68185E-05 3.04761E-06
 -1      1213-1.38045E-05-1.23810E-05 2.18109E-06
 -1      1214-9.92637E-06-1.08632E-05 2.41511E-06
 -1      1215-1.01745E-05-8.42473E-06-1.09782E-06
 -1      1216-6.73824E-06-4.73051E-06-2.00565E-06
 -1      1217-1.04292E-05-7.66339E-06-3.34036E-06
 -1      1218-4.58182E-06-4.02459E-06-8.20828E-07
 -1      1219-4.98251E-06-3.36820E-06-2.33042E-06
 -1      1220-1.01745E-05-8.42473E-06 1.09782E-06
 -1      1221-6.52846E-06-5.00202E-06-1.73613E-14
 -1      1222-4.58182E-06-4.02459E-06 8.20828E-07
 -1      1223-1.04292E-05-7.66339E-06 3.34036E-06
 -1      1224-6.73824E-06-4.73051E-06 2.00565E-06
 -1      1225-4.98251E-06-3.36820E-06 2.33042E-06
 -1      1226-2.89735E-06-1.76609E-06-5.46922E-07
 -1      1227 0.00000E+00 0.00000E+00 0.00000E+00
 -1      1228-3.49290E-06-1.30709E-06-2.42637E-06
 -1      1229 0.00000E+00 0.00000E+00 0.00000E+00
 -1      1230 0.00000E+00 0.00000E+00 0.00000E+00
 -1      1231-2.89735E-06-1.76609E-06 5.46922E-07
 -1      1232 0.00000E+00 0.00000E+00 0.00000E+00
 -1      1233 0.00000E+00 0.00000E+00 0.00000E+00
 -1      1234-3.49290E-06-1.30709E-06 2.42637E-06
 -1      1235 0.00000E+00 0.00000E+00 0.00000E+00
 -1      1236 0.00000E+00 0.00000E+00 0.00000E+00
 -1      1237-8.67015E-05-1.84136E-04-1.41091E-06
 -1      1238-8.45111E-05-1.71311E-04-7.05519E-07
 -1      1239-8.21188E-05-1.58470E-04-1.40659E-06
 -1      1240-8.43343E-05-1.70715E-04-2.07287E-06
 -1      1241-7.05357E-05-1.83696E-04-4.73020E-07
 -1      1242-7.03329E-05-1.82999E-04-1.41696E-06
 -1      1243-6.71385E-05-1.57932E-04-5.44161E-07
 -1      1244-6.69813E-05-1.57422E-04-1.62533E-06
 -1      1245-8.68756E-05-1.84496E-04 2.97920E-11
 -1      1246-8.45110E-05-1.71311E-04 7.05537E-07
 -1      1247-8.22243E-05-1.58732E-04-5.13190E-13
 -1      1248-7.05358E-05-1.83696E-04 4.73026E-07
 -1      1249-6.71385E-05-1.57932E-04 5.44163E-07
 -1      1250-8.67014E-05-1.84136E-04 1.41090E-06
 -1      1251-8.43343E-05-1.70715E-04 2.07286E-06
 -1      1252-8.21188E-05-1.58470E-04 1.40659E-06
 -1      1253-7.03329E-05-1.82999E-04 1.41695E-06
 -1      1254-6.69813E-05-1.57422E-04 1.62533E-06
 -1      1255-7.98211E-05-1.46422E-04-7.29371E-07
 -1      1256-7.72854E-05-1.34372E-04-1.51195E-06
 -1      1257-7.96645E-05-1.45954E-04-2.16084E-06
 -1      1258-6.32870E-05-1.33712E-04-6.15417E-07
 -1      1259-6.31295E-05-1.33257E-04-1.84250E-06
 -1      1260-7.98211E-05-1.46422E-04 7.29371E-07
 -1      1261-7.73670E-05-1.34601E-04 7.38262E-13
 -1      1262-6.32870E-05-1.33712E-04 6.15419E-07
 -1      1263-7.96645E-05-1.45954E-04 2.16084E-06
 -1      1264-7.72854E-05-1.34372E-04 1.51195E-06
 -1      1265-6.31295E-05-1.33257E-04 1.84250E-06
 -1      1266-7.47323E-05-1.23025E-04-7.99549E-07
 -1      1267-7.19035E-05-1.11700E-04-1.68930E-06
 -1      1268-7.45688E-05-1.22573E-04-2.38595E-06
 -1      1269-5.88575E-05-1.10923E-04-6.99256E-07
 -1      1270-5.86879E-05-1.10454E-04-2.09718E-06
 -1      1271-7.47323E-05-1.23025E-04 7.99550E-07
 -1      1272-7.19805E-05-1.11936E-04 3.20249E-13
 -1      1273-5.88575E-05-1.10923E-04 6.99256E-07
 -1      1274-7.45688E-05-1.22573E-04 2.38595E-06
 -1      1275-7.19035E-05-1.11700E-04 1.68930E-06
 -1      1276-5.86879E-05-1.10454E-04 2.09718E-06
 -1      1277-6.90046E-05-1.01118E-04-8.97988E-07
 -1      1278-6.58042E-05-9.05819E-05-1.90484E-06
 -1      1279-6.88303E-05-1.00632E-04-2.68973E-06
 -1      1280-5.37953E-05-8.96882E-05-7.92316E-07
 -1      1281-5.36164E-05-8.91740E-05-2.37730E-06
 -1      1282-6.90046E-05-1.01118E-04 8.97988E-07
 -1      1283-6.58829E-05-9.08389E-05 2.05620E-13
 -1      1284-5.37953E-05-8.96882E-05 7.92316E-07
 -1      1285-6.88303E-05-1.00632E-04 2.68973E-06
 -1      1286-6.58042E-05-9.05819E-05 1.90484E-06
 -1      1287-5.36164E-05-8.91740E-05 2.37730E-06
 -1      1288-6.25223E-05-8.08705E-05-1.00989E-06
 -1      1289-5.89249E-05-7.12196E-05-2.13610E-06
 -1      1290-6.23408E-05-8.03303E-05-3.02871E-06
 -1      1291-4.80678E-05-7.02110E-05-8.89934E-07
 -1      1292-4.78833E-05-6.96403E-05-2.67027E-06
 -1      1293-6.25223E-05-8.08705E-05 1.00989E-06
 -1      1294-5.90060E-05-7.15048E-05 1.53680E-13
 -1      1295-4.80678E-05-7.02110E-05 8.89934E-07
 -1      1296-6.23408E-05-8.03303E-05 3.02871E-06
 -1      1297-5.89249E-05-7.12196E-05 2.13610E-06
 -1      1298-4.78833E-05-6.96403E-05 2.67027E-06
 -1      1299-5.52442E-05-6.24909E-05-1.12701E-06
 -1      1300-5.12395E-05-5.38344E-05-2.37303E-06
 -1      1301-5.50577E-05-6.18913E-05-3.38150E-06
 -1      1302-4.16631E-05-5.27096E-05-9.90235E-07
 -1      1303-4.14741E-05-5.20790E-05-2.96980E-06
 -1      1304-5.52442E-05-6.24909E-05 1.12701E-06
 -1      1305-5.13230E-05-5.41489E-05 9.53954E-14
 -1      1306-4.16631E-05-5.27096E-05 9.90235E-07
 -1      1307-5.50577E-05-6.18913E-05 3.38150E-06
 -1      1308-5.12395E-05-5.38344E-05 2.37303E-06
 -1      1309-4.14741E-05-5.20790E-05 2.96980E-06
 -1      1310-4.71537E-05-4.61968E-05-1.24723E-06
 -1      1311-4.27458E-05-3.86395E-05-2.61884E-06
 -1      1312-4.69640E-05-4.55386E-05-3.74044E-06
 -1      1313-3.45702E-05-3.74058E-05-1.09539E-06
 -1      1314-3.43801E-05-3.67155E-05-3.27664E-06
 -1      1315-4.71537E-05-4.61968E-05 1.24723E-06
 -1      1316-4.28300E-05-3.89852E-05 6.19457E-14
 -1      1317-3.45702E-05-3.74058E-05 1.09539E-06
 -1      1318-4.69640E-05-4.55386E-05 3.74044E-06
 -1      1319-4.27458E-05-3.86395E-05 2.61884E-06
 -1      1320-3.43801E-05-3.67155E-05 3.27664E-06
 -1      1321-3.82627E-05-3.22048E-05-1.37716E-06
 -1      1322-3.34537E-05-2.58490E-05-2.87646E-06
 -1      1323-3.80719E-05-3.14839E-05-4.11077E-06
 -1      1324-2.67871E-05-2.44876E-05-1.21839E-06
 -1      1325-2.66111E-05-2.37367E-05-3.60941E-06
 -1      1326-3.82627E-05-3.22048E-05 1.37716E-06
 -1      1327-3.35068E-05-2.62277E-05 3.43748E-14
 -1      1328-2.67871E-05-2.44876E-05 1.21839E-06
 -1      1329-3.80719E-05-3.14839E-05 4.11077E-06
 -1      1330-3.34537E-05-2.58490E-05 2.87646E-06
 -1      1331-2.66111E-05-2.37367E-05 3.60941E-06
 -1      1332-2.85102E-05-2.06697E-05-1.52716E-06
 -1      1333-2.34237E-05-1.55163E-05-3.18126E-06
 -1      1334-2.84114E-05-1.98948E-05-4.50272E-06
 -1      1335-1.82269E-05-1.41603E-05-1.34224E-06
 -1      1336-1.82435E-05-1.33525E-05-3.90652E-06
 -1      1337-2.85102E-05-2.06697E-05 1.52716E-06
 -1      1338-2.33308E-05-1.59669E-05 2.77384E-14
 -1      1339-1.82269E-05-1.41603E-05 1.34224E-06
 -1      1340-2.84114E-05-1.98948E-05 4.50272E-06
 -1      1341-2.34237E-05-1.55163E-05 3.18126E-06
 -1      1342-1.82435E-05-1.33525E-05 3.90652E-06
 -1      1343-1.80942E-05-1.18162E-05-1.59096E-06
 -1      1344-1.26313E-05-7.68705E-06-2.88095E-06
 -1      1345-1.83798E-05-1.08662E-05-4.81804E-06
 -1      1346-8.82282E-06-5.98710E-06-1.33182E-06
 -1      1347-9.45289E-06-5.22281E-06-3.73216E-06
 -1      1348-1.80942E-05-1.18162E-05 1.59096E-06
 -1      1349-1.23865E-05-8.19742E-06-2.81103E-14
 -1      1350-8.82282E-06-5.98710E-06 1.33182E-06
 -1      1351-1.83798E-05-1.08662E-05 4.81804E-06
 -1      1352-1.26313E-05-7.68705E-06 2.88095E-06
 -1      1353-9.45289E-06-5.22281E-06 3.73216E-06
 -1      1354-6.13342E-06-4.63547E-06-8.12687E-07
 -1      1355 0.00000E+00 0.00000E+00 0.00000E+00
 -1      1356-6.82842E-06-4.05657E-06-3.87833E-06
 -1      1357 0.00000E+00 0.00000E+00 0.00000E+00
 -1      1358 0.00000E+00 0.00000E+00 0.00000E+00
 -1      1359-6.13342E-06-4.63547E-06 8.12687E-07
 -1      1360 0.00000E+00 0.00000E+00 0.00000E+00
 -1      1361 0.00000E+00 0.00000E+00 0.00000E+00
 -1      1362-6.82842E-06-4.05657E-06 3.87833E-06
 -1      1363 0.00000E+00 0.00000E+00 0.00000E+00
 -1      1364 0.00000E+00 0.00000E+00 0.00000E+00
 -1      1365 7.15415E-05-3.28466E-04-7.15890E-07
 -1      1366 6.74312E-05-3.51639E-04-5.21904E-07
 -1      1367 7.16519E-05-3.28042E-04-2.45485E-07
 -1      1368 7.54422E-05-3.03660E-04-3.81909E-07
 -1      1369 4.58237E-05-3.03550E-04-1.81727E-07
 -1      1370 4.52660E-05-3.22409E-04-4.03866E-07
 -1      1371 4.19725E-05-3.40417E-04-1.45014E-06
 -1      1372 4.51780E-05-3.22927E-04-1.37729E-06
 -1      1373 6.12118E-05-3.03687E-04-1.45677E-07
 -1      1374 6.14559E-05-3.03413E-04-4.01779E-07
 -1      1375 5.51251E-05-3.46066E-04-4.82719E-07
 -1      1376 5.47992E-05-3.47149E-04-1.52505E-06
 -1      1377 6.76780E-05-3.51261E-04 4.69491E-12
 -1      1378 7.16519E-05-3.28042E-04 2.45491E-07
 -1      1379 7.55027E-05-3.03796E-04-1.97845E-11
 -1      1380 4.61520E-05-3.03673E-04 6.61015E-13
 -1      1381 4.52659E-05-3.22409E-04 4.03853E-07
 -1      1382 4.24224E-05-3.40074E-04-1.93806E-12
 -1      1383 6.12119E-05-3.03687E-04 1.45676E-07
 -1      1384 5.51251E-05-3.46066E-04 4.82718E-07
 -1      1385 6.74312E-05-3.51639E-04 5.21896E-07
 -1      1386 7.15415E-05-3.28466E-04 7.15876E-07
 -1      1387 7.54422E-05-3.03660E-04 3.81925E-07
 -1      1388 4.58237E-05-3.03550E-04 1.81708E-07
 -1      1389 4.51780E-05-3.22927E-04 1.37729E-06
 -1      1390 4.19725E-05-3.40417E-04 1.45014E-06
 -1      1391 6.14560E-05-3.03413E-04 4.01777E-07
 -1      1392 5.47992E-05-3.47149E-04 1.52505E-06
 -1      1393 5.56935E-05-3.70900E-04-9.56995E-07
 -1      1394 4.63244E-05-3.86170E-04-5.96716E-07
 -1      1395 5.65314E-05-3.69679E-04-3.25645E-07
 -1      1396 3.75966E-05-3.56256E-04-8.50235E-07
 -1      1397 3.13023E-05-3.70046E-04-2.03505E-06
 -1      1398 3.66481E-05-3.57660E-04-2.97289E-06
 -1      1399 3.90177E-05-3.77967E-04-6.37650E-07
 -1      1400 3.77769E-05-3.79215E-04-2.02390E-06
 -1      1401 4.68391E-05-3.85676E-04 1.15930E-12
 -1      1402 5.65314E-05-3.69679E-04 3.25643E-07
 -1      1403 3.75966E-05-3.56256E-04 8.50237E-07
 -1      1404 3.18822E-05-3.69518E-04 1.50994E-12
 -1      1405 3.90177E-05-3.77967E-04 6.37652E-07
 -1      1406 4.63244E-05-3.86170E-04 5.96722E-07
 -1      1407 5.56935E-05-3.70900E-04 9.57002E-07
 -1      1408 3.66481E-05-3.57660E-04 2.97289E-06
 -1      1409 3.13023E-05-3.70046E-04 2.03505E-06
 -1      1410 3.77769E-05-3.79215E-04 2.02391E-06
 -1      1411 3.27932E-05-3.96083E-04-9.87281E-07
 -1      1412 2.34694E-05-4.03378E-04-5.41831E-07
 -1      1413 3.41176E-05-3.95203E-04-3.35498E-07
 -1      1414 2.50471E-05-3.80419E-04-9.02031E-07
 -1      1415 1.81072E-05-3.88529E-04-1.64753E-06
 -1      1416 2.35209E-05-3.81422E-04-3.14936E-06
 -1      1417 2.08201E-05-3.95626E-04-5.32446E-07
 -1      1418 1.95187E-05-3.96032E-04-1.69785E-06
 -1      1419 2.39410E-05-4.03125E-04 4.16248E-12
 -1      1420 3.41176E-05-3.95203E-04 3.35504E-07
 -1      1421 2.50472E-05-3.80419E-04 9.02033E-07
 -1      1422 1.85719E-05-3.88101E-04 1.34091E-12
 -1      1423 2.08201E-05-3.95626E-04 5.32451E-07
 -1      1424 2.34694E-05-4.03378E-04 5.41838E-07
 -1      1425 3.27932E-05-3.96083E-04 9.87285E-07
 -1      1426 2.35209E-05-3.81422E-04 3.14936E-06
 -1      1427 1.81072E-05-3.88529E-04 1.64754E-06
 -1      1428 1.95188E-05-3.96032E-04 1.69785E-06
 -1      1429 1.30887E-05-4.05930E-04-7.15912E-07
 -1      1430 5.11720E-06-4.08617E-04-2.98182E-07
 -1      1431 1.38035E-05-4.05814E-04-2.36695E-07
 -1      1432 1.17432E-05-3.93311E-04-4.87842E-07
 -1      1433 5.82757E-06-3.96055E-04-3.40196E-07
 -1      1434 1.08922E-05-3.93426E-04-1.78910E-06
 -1      1435 5.41612E-06-4.01641E-04-1.58942E-07
 -1      1436 5.36450E-06-4.01389E-04-4.80466E-07
 -1      1437 5.13813E-06-4.08526E-04 4.44120E-12
 -1      1438 1.38035E-05-4.05814E-04 2.36703E-07
 -1      1439 1.17432E-05-3.93311E-04 4.87847E-07
 -1      1440 5.85059E-06-3.95652E-04 2.92742E-12
 -1      1441 5.41612E-06-4.01641E-04 1.58949E-07
 -1      1442 5.11721E-06-4.08617E-04 2.98191E-07
 -1      1443 1.30887E-05-4.05930E-04 7.15920E-07
 -1      1444 1.08922E-05-3.93426E-04 1.78910E-06
 -1      1445 5.82758E-06-3.96055E-04 3.40201E-07
 -1      1446 5.36451E-06-4.01389E-04 4.80474E-07
 -1      1447 1.02211E-04-3.34606E-04-4.02849E-08
 -1      1448 9.32001E-05-3.62127E-04 3.54564E-07
 -1      1449 1.02435E-04-3.34197E-04-6.85216E-08
 -1      1450 1.05041E-04-3.03986E-04-6.27605E-07
 -1      1451 8.98221E-05-3.03898E-04-2.49566E-07
 -1      1452 8.96311E-05-3.03591E-04-7.50068E-07
 -1      1453 8.02709E-05-3.56565E-04-4.45368E-08
 -1      1454 7.97268E-05-3.57476E-04-2.64079E-08
 -1      1455 9.33214E-05-3.61679E-04-7.66727E-13
 -1      1456 1.02435E-04-3.34197E-04 6.85176E-08
 -1      1457 1.04870E-04-3.04132E-04 3.65158E-13
 -1      1458 8.98220E-05-3.03898E-04 2.49558E-07
 -1      1459 8.02709E-05-3.56565E-04 4.45378E-08
 -1      1460 9.32001E-05-3.62127E-04-3.54566E-07
 -1      1461 1.02211E-04-3.34606E-04 4.02856E-08
 -1      1462 1.05041E-04-3.03986E-04 6.27606E-07
 -1      1463 8.96311E-05-3.03591E-04 7.50059E-07
 -1      1464 7.97268E-05-3.57476E-04 2.64073E-08
 -1      1465 7.84214E-05-3.85422E-04 1.07974E-06
 -1      1466 6.22035E-05-4.01442E-04 7.48758E-07
 -1      1467 7.92777E-05-3.84256E-04 2.68407E-07
 -1      1468 5.45692E-05-3.93466E-04 3.52477E-08
 -1      1469 5.34007E-05-3.94603E-04 2.54213E-07
 -1      1470 6.27165E-05-4.00924E-04 3.42676E-12
 -1      1471 7.92777E-05-3.84256E-04-2.68401E-07
 -1      1472 5.45692E-05-3.93466E-04-3.52424E-08
 -1      1473 6.22035E-05-4.01442E-04-7.48750E-07
 -1      1474 7.84214E-05-3.85422E-04-1.07974E-06
 -1      1475 5.34007E-05-3.94603E-04-2.54206E-07
 -1      1476 4.45692E-05-4.12605E-04 1.19997E-06
 -1      1477 2.97789E-05-4.17845E-04 4.95890E-07
 -1      1478 4.58410E-05-4.11724E-04 3.00703E-07
 -1      1479 2.70057E-05-4.10634E-04-1.28153E-08
 -1      1480 2.58936E-05-4.11205E-04 8.58734E-08
 -1      1481 3.03136E-05-4.17706E-04 5.48223E-12
 -1      1482 4.58410E-05-4.11724E-04-3.00693E-07
 -1      1483 2.70057E-05-4.10634E-04 1.28247E-08
 -1      1484 2.97789E-05-4.17845E-04-4.95879E-07
 -1      1485 4.45692E-05-4.12605E-04-1.19996E-06
 -1      1486 2.58937E-05-4.11205E-04-8.58640E-08
 -1      1487 1.61731E-05-4.20770E-04 3.08218E-07
 -1      1488 4.80819E-06-4.21476E-04-2.58747E-07
 -1      1489 1.68499E-05-4.20555E-04 5.29475E-08
 -1      1490 4.94009E-06-4.15329E-04-1.39295E-07
 -1      1491 4.89230E-06-4.15472E-04-4.13619E-07
 -1      1492 4.82958E-06-4.21604E-04 6.42399E-12
 -1      1493 1.68499E-05-4.20555E-04-5.29350E-08
 -1      1494 4.94009E-06-4.15329E-04 1.39306E-07
 -1      1495 4.80819E-06-4.21476E-04 2.58760E-07
 -1      1496 1.61731E-05-4.20770E-04-3.08206E-07
 -1      1497 4.89230E-06-4.15472E-04 4.13630E-07
 -1      1498-6.59811E-05-3.37960E-04 1.25240E-07
 -1      1499-6.05116E-05-3.60263E-04 5.02494E-08
 -1      1500-6.61442E-05-3.37358E-04 3.70475E-08
 -1      1501-7.14531E-05-3.13089E-04 1.80744E-07
 -1      1502-4.14162E-05-3.14258E-04 2.11792E-07
 -1      1503-3.94599E-05-3.33012E-04-1.83750E-07
 -1      1504-3.47781E-05-3.50402E-04-9.85193E-07
 -1      1505-3.93082E-05-3.33722E-04-7.72688E-07
 -1      1506-5.70135E-05-3.13600E-04 9.51488E-08
 -1      1507-5.72023E-05-3.13532E-04 2.93455E-07
 -1      1508-4.80865E-05-3.55210E-04-2.21219E-07
 -1      1509-4.76901E-05-3.56414E-04-7.48205E-07
 -1      1510-6.07794E-05-3.59827E-04 6.71616E-12
 -1      1511-6.61443E-05-3.37358E-04-3.70372E-08
 -1      1512-7.15479E-05-3.13143E-04-2.06632E-11
 -1      1513-4.17773E-05-3.14298E-04 3.71861E-12
 -1      1514-3.94599E-05-3.33012E-04 1.83737E-07
 -1      1515-3.52309E-05-3.49990E-04-1.11929E-12
 -1      1516-5.70136E-05-3.13600E-04-9.51467E-08
 -1      1517-4.80865E-05-3.55211E-04 2.21221E-07
 -1      1518-6.05116E-05-3.60263E-04-5.02547E-08
 -1      1519-6.59811E-05-3.37960E-04-1.25252E-07
 -1      1520-7.14531E-05-3.13089E-04-1.80722E-07
 -1      1521-4.14162E-05-3.14258E-04-2.11807E-07
 -1      1522-3.93082E-05-3.33722E-04 7.72700E-07
 -1      1523-3.47781E-05-3.50402E-04 9.85197E-07
 -1      1524-5.72023E-05-3.13532E-04-2.93455E-07
 -1      1525-4.76901E-05-3.56414E-04 7.48204E-07
 -1      1526-4.75554E-05-3.78526E-04-9.79405E-08
 -1      1527-3.73429E-05-3.92323E-04-1.46692E-08
 -1      1528-4.84311E-05-3.77243E-04-3.95244E-08
 -1      1529-2.90717E-05-3.65171E-04-5.90777E-07
 -1      1530-2.16897E-05-3.77544E-04-1.46381E-06
 -1      1531-2.80803E-05-3.66641E-04-2.19387E-06
 -1      1532-2.97903E-05-3.84668E-04-3.49699E-07
 -1      1533-2.85313E-05-3.85920E-04-1.15568E-06
 -1      1534-3.78583E-05-3.91816E-04 2.30960E-12
 -1      1535-4.84311E-05-3.77243E-04 3.95249E-08
 -1      1536-2.90717E-05-3.65171E-04 5.90783E-07
 -1      1537-2.22569E-05-3.76988E-04 2.61350E-12
 -1      1538-2.97903E-05-3.84668E-04 3.49704E-07
 -1      1539-3.73429E-05-3.92323E-04 1.46779E-08
 -1      1540-4.75554E-05-3.78526E-04 9.79520E-08
 -1      1541-2.80803E-05-3.66641E-04 2.19386E-06
 -1      1542-2.16897E-05-3.77544E-04 1.46381E-06
 -1      1543-2.85313E-05-3.85920E-04 1.15568E-06
 -1      1544-2.31807E-05-4.00781E-04-1.03102E-07
 -1      1545-1.34972E-05-4.06478E-04 5.04167E-08
 -1      1546-2.44772E-05-3.99917E-04-4.13782E-08
 -1      1547-1.44912E-05-3.86252E-04-5.97036E-07
 -1      1548-6.96381E-06-3.92498E-04-9.96075E-07
 -1      1549-1.29974E-05-3.87234E-04-2.21530E-06
 -1      1550-1.03638E-05-3.99096E-04-2.22712E-07
 -1      1551-9.12682E-06-3.99469E-04-7.61446E-07
 -1      1552-1.39409E-05-4.06232E-04 4.98345E-12
 -1      1553-2.44772E-05-3.99917E-04 4.13869E-08
 -1      1554-1.44912E-05-3.86252E-04 5.97039E-07
 -1      1555-7.39348E-06-3.92068E-04 1.68082E-12
 -1      1556-1.03638E-05-3.99096E-04 2.22719E-07
 -1      1557-1.34972E-05-4.06478E-04-5.04085E-08
 -1      1558-2.31807E-05-4.00781E-04 1.03109E-07
 -1      1559-1.29974E-05-3.87234E-04 2.21531E-06
 -1      1560-6.96381E-06-3.92498E-04 9.96081E-07
 -1      1561-9.12682E-06-3.99469E-04 7.61452E-07
 -1      1562-2.91519E-06-4.07488E-04 1.83253E-07
 -1      1563-3.54160E-06-4.07389E-04 6.32201E-08
 -1      1564-1.45436E-07-3.95327E-04-1.56025E-07
 -1      1565 6.04638E-07-3.95423E-04-7.67879E-07
 -1      1566-3.54160E-06-4.07389E-04-6.32114E-08
 -1      1567-1.45438E-07-3.95327E-04 1.56031E-07
 -1      1568-2.91520E-06-4.07488E-04-1.83243E-07
 -1      1569 6.04630E-07-3.95423E-04 7.67885E-07
 -1      1570-9.68634E-05-3.43292E-04 1.04556E-06
 -1      1571-8.62998E-05-3.69988E-04 1.02624E-06
 -1      1572-9.71313E-05-3.42701E-04 2.89684E-07
 -1      1573-1.01552E-04-3.12689E-04 1.18130E-07
 -1      1574-8.61516E-05-3.12856E-04 7.59746E-08
 -1      1575-8.59108E-05-3.12764E-04 2.44145E-07
 -1      1576-7.34278E-05-3.64707E-04 2.66235E-07
 -1      1577-7.28486E-05-3.65741E-04 9.10652E-07
 -1      1578-8.64573E-05-3.69487E-04 1.21988E-12
 -1      1579-9.71314E-05-3.42701E-04-2.89687E-07
 -1      1580-1.01427E-04-3.12741E-04-5.40214E-13
 -1      1581-8.61516E-05-3.12856E-04-7.59819E-08
 -1      1582-7.34278E-05-3.64707E-04-2.66231E-07
 -1      1583-8.62998E-05-3.69988E-04-1.02624E-06
 -1      1584-9.68634E-05-3.43292E-04-1.04556E-06
 -1      1585-1.01552E-04-3.12689E-04-1.18129E-07
 -1      1586-8.59108E-05-3.12764E-04-2.44149E-07
 -1      1587-7.28486E-05-3.65741E-04-9.10649E-07
 -1      1588-7.03496E-05-3.92154E-04 2.02103E-06
 -1      1589-5.33335E-05-4.06770E-04 1.33838E-06
 -1      1590-7.12318E-05-3.90928E-04 5.83028E-07
 -1      1591-4.57115E-05-3.99163E-04 3.28422E-07
 -1      1592-4.45439E-05-4.00322E-04 1.13235E-06
 -1      1593-5.38562E-05-4.06251E-04 4.75152E-12
 -1      1594-7.12318E-05-3.90928E-04-5.83018E-07
 -1      1595-4.57115E-05-3.99163E-04-3.28414E-07
 -1      1596-5.33336E-05-4.06770E-04-1.33837E-06
 -1      1597-7.03496E-05-3.92154E-04-2.02102E-06
 -1      1598-4.45439E-05-4.00322E-04-1.13234E-06
 -1      1599-3.52910E-05-4.16503E-04 2.03361E-06
 -1      1600-2.02526E-05-4.20376E-04 1.03209E-06
 -1      1601-3.65307E-05-4.15634E-04 5.82049E-07
 -1      1602-1.73100E-05-4.13437E-04 2.69366E-07
 -1      1603-1.62631E-05-4.13990E-04 9.25975E-07
 -1      1604-2.07613E-05-4.20251E-04 6.49130E-12
 -1      1605-3.65307E-05-4.15634E-04-5.82037E-07
 -1      1606-1.73100E-05-4.13437E-04-2.69355E-07
 -1      1607-2.02526E-05-4.20376E-04-1.03207E-06
 -1      1608-3.52910E-05-4.16503E-04-2.03360E-06
 -1      1609-1.62631E-05-4.13990E-04-9.25964E-07
 -1      1610-6.63889E-06-4.22000E-04 1.08340E-06
 -1      1611-7.22916E-06-4.21800E-04 3.16820E-07
 -1      1612-7.22917E-06-4.21800E-04-3.16807E-07
 -1      1613-6.63890E-06-4.22000E-04-1.08338E-06
 -1      1614-2.38790E-05-1.95727E-04 1.74872E-07
 -1      1615-2.23591E-05-2.08451E-04-2.55103E-11
 -1      1616-2.38703E-05-1.95730E-04-1.74930E-07
 -1      1617-7.44477E-08-1.92377E-04-6.96057E-08
 -1      1618-2.56445E-07-2.01819E-04-1.52921E-11
 -1      1619-7.44291E-08-1.92377E-04 6.96169E-08
 -1      1620-1.10637E-05-2.05069E-04-2.40120E-07
 -1      1621-1.10714E-05-2.05067E-04 2.40168E-07
 -1      1622-2.20932E-05-2.08286E-04-7.07551E-07
 -1      1623-2.33413E-05-1.95500E-04-4.67072E-07
 -1      1624-1.54767E-08-1.92521E-04-2.06886E-07
 -1      1625-2.26337E-07-2.01867E-04-1.63144E-07
 -1      1626-1.06448E-05-2.05201E-04-6.98822E-07
 -1      1627-5.35565E-05-2.02113E-04-6.86116E-08
 -1      1628-5.18435E-05-2.22659E-04 3.46764E-12
 -1      1629-5.35351E-05-2.02135E-04 6.80097E-08
 -1      1630-3.58402E-05-2.15399E-04-3.69732E-07
 -1      1631-3.58706E-05-2.15374E-04 3.68932E-07
 -1      1632-5.15439E-05-2.22244E-04-3.96452E-07
 -1      1633-5.30246E-05-2.01350E-04 2.55028E-07
 -1      1634-3.50703E-05-2.14752E-04-1.08211E-06
 -1      1635-2.21016E-05-2.08284E-04 7.07517E-07
 -1      1636-2.33413E-05-1.95500E-04 4.67074E-07
 -1      1637-1.54804E-08-1.92521E-04 2.06858E-07
 -1      1638-2.26464E-07-2.01867E-04 1.63157E-07
 -1      1639-1.06448E-05-2.05201E-04 6.98857E-07
 -1      1640-5.15673E-05-2.22220E-04 3.94848E-07
 -1      1641-5.30246E-05-2.01350E-04-2.55004E-07
 -1      1642-3.50703E-05-2.14751E-04 1.08207E-06
 -1      1643-1.95291E-05-2.18001E-04 5.12220E-07
 -1      1644-1.87076E-05-2.17937E-04 1.55884E-06
 -1      1645-1.73471E-05-2.26673E-04 1.38175E-06
 -1      1646-8.69666E-07-2.19149E-04 2.15422E-07
 -1      1647-4.45105E-07-2.11322E-04 2.82190E-07
 -1      1648-5.10868E-07-2.10906E-04 9.47147E-08
 -1      1649-9.20025E-06-2.21755E-04 1.20494E-06
 -1      1650-9.70666E-06-2.21543E-04 4.04099E-07
 -1      1651-4.11300E-05-2.34267E-04 5.81061E-07
 -1      1652-4.02784E-05-2.33275E-04 1.76323E-06
 -1      1653-3.08154E-05-2.46544E-04 1.98028E-06
 -1      1654-2.35475E-05-2.34852E-04 2.85305E-06
 -1      1655-2.45970E-05-2.35517E-04 8.40835E-07
 -1      1656-1.95216E-05-2.18002E-04-5.12203E-07
 -1      1657-1.73472E-05-2.26673E-04-1.38177E-06
 -1      1658-1.87075E-05-2.17937E-04-1.55883E-06
 -1      1659-4.45034E-07-2.11322E-04-2.82192E-07
 -1      1660-8.69791E-07-2.19149E-04-2.15444E-07
 -1      1661-5.10647E-07-2.10906E-04-9.47235E-08
 -1      1662-9.20014E-06-2.21755E-04-1.20508E-06
 -1      1663-9.70639E-06-2.21544E-04-4.04051E-07
 -1      1664-1.76171E-05-2.26953E-04-2.76625E-11
 -1      1665-9.02914E-07-2.19220E-04-3.61769E-12
 -1      1666-4.11071E-05-2.34293E-04-5.81835E-07
 -1      1667-3.08153E-05-2.46544E-04-1.98029E-06
 -1      1668-4.02784E-05-2.33275E-04-1.76336E-06
 -1      1669-2.35474E-05-2.34852E-04-2.85294E-06
 -1      1670-2.45976E-05-2.35516E-04-8.40864E-07
 -1      1671-3.11544E-05-2.47034E-04-8.01727E-12
 -1      1672-7.20466E-05-2.20847E-04-2.51105E-07
 -1      1673-7.20235E-05-2.20871E-04 2.50379E-07
 -1      1674-9.31072E-05-2.19603E-04-6.24943E-11
 -1      1675-8.98967E-05-2.01233E-04 7.00975E-07
 -1      1676-8.98965E-05-2.01233E-04-7.00941E-07
 -1      1677-7.16197E-05-2.19737E-04 7.96476E-07
 -1      1678-9.28619E-05-2.19066E-04 1.40037E-06
 -1      1679-8.96208E-05-2.00288E-04 2.14874E-06
 -1      1680-9.28617E-05-2.19066E-04-1.40034E-06
 -1      1681-7.16197E-05-2.19737E-04-7.96432E-07
 -1      1682-8.96209E-05-2.00288E-04-2.14881E-06
 -1      1683-5.81821E-05-2.43084E-04 2.55707E-07
 -1      1684-6.49729E-05-2.65994E-04 4.31157E-07
 -1      1685-5.76320E-05-2.41893E-04 7.52808E-07
 -1      1686-9.59111E-05-2.38271E-04-1.96364E-06
 -1      1687-9.91881E-05-2.61570E-04-8.81931E-07
 -1      1688-9.62859E-05-2.39582E-04-5.66476E-07
 -1      1689-8.14211E-05-2.62884E-04-4.48755E-07
 -1      1690-8.17923E-05-2.64027E-04-1.15012E-07
 -1      1691-6.83318E-05-2.89308E-04 1.50905E-07
 -1      1692-6.82496E-05-2.88580E-04 4.62283E-07
 -1      1693-1.00785E-04-2.85969E-04-6.66892E-07
 -1      1694-1.01012E-04-2.86713E-04-1.71399E-07
 -1      1695-6.51344E-05-2.66478E-04 2.13357E-11
 -1      1696-6.83272E-05-2.89325E-04-1.50967E-07
 -1      1697-1.01012E-04-2.86713E-04 1.71374E-07
 -1      1698-9.92449E-05-2.62094E-04-4.78606E-12
 -1      1699-8.17889E-05-2.64042E-04 1.14866E-07
 -1      1700-6.49688E-05-2.66009E-04-4.31425E-07
 -1      1701-6.82496E-05-2.88580E-04-4.62230E-07
 -1      1702-1.00785E-04-2.85969E-04 6.66900E-07
 -1      1703-9.91880E-05-2.61570E-04 8.81900E-07
 -1      1704-8.14211E-05-2.62884E-04 4.48679E-07
 -1      1705-5.81526E-05-2.43125E-04-2.56673E-07
 -1      1706-9.62861E-05-2.39582E-04 5.66419E-07
 -1      1707-5.76321E-05-2.41893E-04-7.52895E-07
 -1      1708-9.59110E-05-2.38271E-04 1.96368E-06
 -1      1709-5.27000E-05-2.71389E-04 4.61230E-07
 -1      1710-3.62165E-05-2.60789E-04 8.48252E-07
 -1      1711-3.55401E-05-2.59378E-04 2.98800E-06
 -1      1712-5.25050E-05-2.70143E-04 1.49784E-06
 -1      1713-3.95856E-05-2.76957E-04 1.46682E-06
 -1      1714-4.18488E-05-2.95366E-04 4.06204E-07
 -1      1715-4.18120E-05-2.94562E-04 1.42905E-06
 -1      1716-3.55401E-05-2.59378E-04-2.98784E-06
 -1      1717-3.95857E-05-2.76957E-04-1.46680E-06
 -1      1718-3.62160E-05-2.60789E-04-8.48323E-07
 -1      1719-5.25050E-05-2.70143E-04-1.49781E-06
 -1      1720-5.26948E-05-2.71406E-04-4.61293E-07
 -1      1721-4.18120E-05-2.94562E-04-1.42918E-06
 -1      1722-4.18490E-05-2.95366E-04-4.06124E-07
 -1      1723-3.99107E-05-2.77411E-04-5.58182E-11
 -1      1724 2.18389E-05-2.06125E-04 3.75653E-07
 -1      1725 2.38627E-05-1.94157E-04 4.28499E-08
 -1      1726 2.34455E-05-1.93978E-04 7.31767E-08
 -1      1727 1.02826E-05-2.04112E-04 1.99504E-07
 -1      1728 1.05775E-05-2.03953E-04 7.21155E-08
 -1      1729 5.18157E-05-2.18006E-04 8.91482E-08
 -1      1730 5.35383E-05-1.99400E-04-1.68462E-07
 -1      1731 5.31352E-05-1.98717E-04-5.56826E-07
 -1      1732 3.51892E-05-2.11479E-04 5.97960E-07
 -1      1733 3.58587E-05-2.12034E-04 2.08332E-07
 -1      1734 2.20325E-05-2.06267E-04-3.08663E-11
 -1      1735 2.38539E-05-1.94160E-04-4.28904E-08
 -1      1736 1.05696E-05-2.03956E-04-7.20514E-08
 -1      1737 2.18302E-05-2.06128E-04-3.75647E-07
 -1      1738 2.34455E-05-1.93978E-04-7.31789E-08
 -1      1739 1.02826E-05-2.04112E-04-1.99480E-07
 -1      1740 5.20268E-05-2.18422E-04 7.04549E-12
 -1      1741 5.35173E-05-1.99421E-04 1.67960E-07
 -1      1742 3.58276E-05-2.12058E-04-2.09029E-07
 -1      1743 5.17927E-05-2.18029E-04-9.05747E-08
 -1      1744 5.31352E-05-1.98717E-04 5.56836E-07
 -1      1745 3.51892E-05-2.11479E-04-5.97984E-07
 -1      1746 1.88199E-05-2.15362E-04-3.18476E-07
 -1      1747 1.60492E-05-2.23520E-04-9.33634E-07
 -1      1748 1.81493E-05-2.15342E-04-9.74733E-07
 -1      1749 7.61880E-06-2.20184E-04-5.52221E-07
 -1      1750 7.98389E-06-2.19949E-04-1.86145E-07
 -1      1751 1.88279E-05-2.15360E-04 3.18504E-07
 -1      1752 1.62531E-05-2.23776E-04-2.99691E-11
 -1      1753 7.98412E-06-2.19949E-04 1.86180E-07
 -1      1754 4.13273E-05-2.29111E-04-3.91931E-07
 -1      1755 3.07765E-05-2.40147E-04-1.53252E-06
 -1      1756 4.06202E-05-2.28150E-04-1.18438E-06
 -1      1757 2.28659E-05-2.30082E-04-2.15817E-06
 -1      1758 2.37737E-05-2.30686E-04-6.20355E-07
 -1      1759 4.13506E-05-2.29087E-04 3.91211E-07
 -1      1760 3.10443E-05-2.40631E-04 5.30456E-12
 -1      1761 2.37732E-05-2.30687E-04 6.20355E-07
 -1      1762 1.81493E-05-2.15342E-04 9.74760E-07
 -1      1763 1.60491E-05-2.23519E-04 9.33616E-07
 -1      1764 7.61891E-06-2.20184E-04 5.52105E-07
 -1      1765 4.06202E-05-2.28150E-04 1.18428E-06
 -1      1766 3.07765E-05-2.40147E-04 1.53250E-06
 -1      1767 2.28660E-05-2.30082E-04 2.15821E-06
 -1      1768 7.19087E-05-2.16731E-04-3.71923E-07
 -1      1769 7.18867E-05-2.16753E-04 3.71294E-07
 -1      1770 9.18483E-05-2.15717E-04-6.59941E-11
 -1      1771 8.85375E-05-1.98565E-04 7.26637E-07
 -1      1772 8.85374E-05-1.98566E-04-7.26609E-07
 -1      1773 7.16523E-05-2.15682E-04 1.15593E-06
 -1      1774 9.16625E-05-2.15211E-04 1.57426E-06
 -1      1775 8.83980E-05-1.97741E-04 2.19452E-06
 -1      1776 9.16623E-05-2.15211E-04-1.57422E-06
 -1      1777 7.16523E-05-2.15682E-04-1.15587E-06
 -1      1778 8.83980E-05-1.97741E-04-2.19460E-06
 -1      1779 5.88091E-05-2.37139E-04-6.74785E-08
 -1      1780 8.28831E-05-2.56814E-04 3.66353E-07
 -1      1781 9.55387E-05-2.34288E-04 7.45482E-07
 -1      1782 9.53351E-05-2.32973E-04 2.48514E-06
 -1      1783 8.26694E-05-2.55552E-04 1.20764E-06
 -1      1784 5.84126E-05-2.35913E-04-1.82077E-07
 -1      1785 9.93614E-05-2.54759E-04 1.43045E-06
 -1      1786 6.64993E-05-2.58267E-04 2.57964E-08
 -1      1787 7.09518E-05-2.80450E-04 1.06554E-07
 -1      1788 1.02686E-04-2.78707E-04 5.01797E-07
 -1      1789 1.02555E-04-2.77755E-04 1.74232E-06
 -1      1790 7.09463E-05-2.79540E-04 3.04971E-07
 -1      1791 5.88374E-05-2.37101E-04 6.65979E-08
 -1      1792 8.28857E-05-2.56800E-04-3.66476E-07
 -1      1793 9.55385E-05-2.34288E-04-7.45517E-07
 -1      1794 9.93951E-05-2.55325E-04-8.49664E-12
 -1      1795 6.66094E-05-2.58772E-04 2.12250E-11
 -1      1796 7.09555E-05-2.80434E-04-1.06615E-07
 -1      1797 1.02686E-04-2.78707E-04-5.01834E-07
 -1      1798 5.44211E-05-2.63041E-04-2.44917E-07
 -1      1799 4.48975E-05-2.85115E-04-1.99636E-07
 -1      1800 4.49185E-05-2.84136E-04-8.79366E-07
 -1      1801 5.42907E-05-2.61699E-04-8.58039E-07
 -1      1802 4.15364E-05-2.67692E-04-1.06233E-06
 -1      1803 3.69866E-05-2.52874E-04-6.35225E-07
 -1      1804 3.64096E-05-2.51461E-04-2.33272E-06
 -1      1805 5.44255E-05-2.63026E-04 2.44849E-07
 -1      1806 4.48973E-05-2.85115E-04 1.99705E-07
 -1      1807 4.17831E-05-2.68197E-04-4.95081E-11
 -1      1808 3.69870E-05-2.52874E-04 6.35164E-07
 -1      1809 6.65026E-05-2.58252E-04-2.60430E-08
 -1      1810 5.84125E-05-2.35913E-04 1.81983E-07
 -1      1811 9.53353E-05-2.32973E-04-2.48514E-06
 -1      1812 9.93615E-05-2.54759E-04-1.43047E-06
 -1      1813 8.26693E-05-2.55552E-04-1.20770E-06
 -1      1814 7.09463E-05-2.79540E-04-3.04930E-07
 -1      1815 1.02555E-04-2.77755E-04-1.74230E-06
 -1      1816 3.64096E-05-2.51461E-04 2.33283E-06
 -1      1817 5.42907E-05-2.61699E-04 8.58071E-07
 -1      1818 4.15363E-05-2.67692E-04 1.06234E-06
 -1      1819 4.49185E-05-2.84136E-04 8.79261E-07
 -3
    1PSTEP                         2           1           1          
  100CL  101 1.000000000        1819                     0    1           1
 -4  STRESS      6    1
 -5  SXX         1    4    1    1
 -5  SYY         1    4    2    2
 -5  SZZ         1    4    3    3
 -5  SXY         1    4    1    2
 -5  SYZ         1    4    2    3
 -5  SZX         1    4    3    1
 -1         1-2.55820E+06 1.40432E+07-5.03326E+04-7.87658E+07-1.71170E+05-2.34553E+02
 -1         2-2.55863E+06 1.40446E+07-4.99393E+04-7.87659E+07 1.71371E+05-1.55435E+02
 -1         3-1.79815E+04-6.43049E+03-6.47214E+03-7.28684E+05-1.97633E+06 5.63428E+03
 -1         4-1.79818E+04-6.43060E+03-6.47226E+03-7.28685E+05 1.97634E+06-5.63438E+03
 -1         5 1.30461E+08-2.07659E+06-2.09066E+05 5.35406E+06-8.64573E+04-1.39723E+06
 -1         6 5.08079E+08 1.82969E+08 1.73970E+08-9.89040E+07-4.35114E+06-1.20514E+08
 -1         7 5.08079E+08 1.82969E+08 1.73970E+08-9.89040E+07 4.35115E+06 1.20514E+08
 -1         8 1.30460E+08-2.07672E+06-2.10312E+05 5.35522E+06 8.69411E+04 1.39781E+06
 -1         9-1.36078E+08 8.52126E+05 1.52715E+05 5.17520E+06 2.09630E+05-1.49815E+06
 -1        10-1.36077E+08 8.52358E+05 1.54465E+05 5.17642E+06-2.10443E+05 1.49858E+06
 -1        11-5.07966E+08-1.82925E+08-1.73931E+08-9.88806E+07-4.34911E+06 1.20488E+08
 -1        12-5.07966E+08-1.82925E+08-1.73931E+08-9.88806E+07 4.34911E+06-1.20488E+08
 -1        13 9.61480E+06-1.50541E+06-2.20050E+05-1.82478E+07-2.14462E+05-1.18557E+07
 -1        14 9.61352E+06-1.50615E+06-2.20877E+05-1.82471E+07 2.15468E+05 1.18569E+07
 -1        15-2.56495E+07 6.12709E+07-1.52105E+04-2.44295E+07 1.48742E+07-3.98018E+04
 -1        16-2.56495E+07 6.12709E+07-1.51321E+04-2.44295E+07-1.48741E+07 3.97977E+04
 -1        17 6.06515E+07 8.83357E+05-4.76252E+05-1.24743E+07 2.19808E+05-5.39663E+06
 -1        18-4.87114E+04 2.47339E+07 2.30112E+04-1.06429E+07-3.98115E+06 9.98927E+03
 -1        19-4.87271E+04 2.47339E+07 2.30297E+04-1.06429E+07 3.98115E+06-9.99497E+03
 -1        20 6.06531E+07 8.83626E+05-4.75209E+05-1.24747E+07-2.19961E+05 5.39664E+06
 -1        21 7.14785E+07-5.08682E+07 3.77415E+05-1.79582E+07 1.06225E+05-1.19108E+07
 -1        22 7.14798E+07-5.08675E+07 3.78523E+05-1.79577E+07-1.06865E+05 1.19125E+07
 -1        23 2.23439E+07-7.26226E+04 3.48370E+05-1.03003E+07-1.84597E+05-4.86643E+06
 -1        24 2.23418E+07-7.30287E+04 3.47055E+05-1.03009E+07 1.84737E+05 4.86679E+06
 -1        25-2.57274E+07 4.63513E+07 6.09356E+04-3.52338E+06-5.61861E+06-1.67427E+04
 -1        26-2.57261E+07 4.63528E+07 6.10513E+04-3.52349E+06 5.61898E+06 1.59433E+04
 -1        27-2.88273E+06 1.44968E+07-6.47465E+04-7.06113E+07-7.76584E+05 3.02260E+04
 -1        28-2.88871E+06 1.44999E+07-6.58353E+04-7.06119E+07 7.76455E+05-2.99990E+04
 -1        29 1.22804E+06 5.63870E+06-1.40092E+04-6.31658E+07-1.06866E+04-6.65180E+03
 -1        30 1.93242E+06 1.86450E+06 7.65775E+03-5.34500E+07-1.11747E+04 6.11441E+01
 -1        31 1.70206E+06 1.75428E+05 5.97557E+02-4.92123E+07-2.44613E+03-1.77088E+02
 -1        32 1.21982E+06-4.01001E+05 8.99155E+02-4.76024E+07-5.24786E+02-2.42996E+02
 -1        33 7.71451E+05-4.86560E+05 7.41931E+02-4.71423E+07-2.46430E+02 1.78655E+01
 -1        34 4.41544E+05-3.95006E+05 4.49593E+02-4.71712E+07 7.26460E+03 2.80327E+01
 -1        35 2.29104E+05-2.68548E+05 2.30531E+02-4.72556E+07-8.34772E+03 5.76339E+01
 -1        36 1.05059E+05-1.60860E+05 2.08653E+02-4.71674E+07-3.00803E+04-6.46901E+00
 -1        37 3.88469E+04-8.43776E+04-7.55352E+01-4.26368E+07-7.48732E+05-1.70012E+01
 -1        38 5.76966E+03-3.54734E+04 1.38767E+03-2.93166E+07-5.67310E+05-5.51607E+02
 -1        39-7.32800E+03-2.23616E+03-2.67688E+03-1.38706E+07 4.27063E+05 8.05934E+02
 -1        40-7.32799E+03-2.23615E+03-2.67687E+03-1.38706E+07-4.27064E+05-8.06039E+02
 -1        41 5.76953E+03-3.54732E+04 1.38769E+03-2.93166E+07 5.67309E+05 5.51605E+02
 -1        42 3.88468E+04-8.43771E+04-7.55421E+01-4.26368E+07 7.48733E+05 1.69882E+01
 -1        43 1.05059E+05-1.60859E+05 2.08668E+02-4.71674E+07 3.00801E+04 6.44481E+00
 -1        44 2.29104E+05-2.68547E+05 2.30438E+02-4.72556E+07 8.34775E+03-5.76476E+01
 -1        45 4.41544E+05-3.95004E+05 4.49998E+02-4.71712E+07-7.26462E+03-2.81532E+01
 -1        46 7.71454E+05-4.86558E+05 7.40165E+02-4.71423E+07 2.46480E+02-1.80501E+01
 -1        47 1.21983E+06-4.00990E+05 9.04225E+02-4.76024E+07 5.24273E+02 2.43945E+02
 -1        48 1.70209E+06 1.75414E+05 5.94843E+02-4.92123E+07 2.44716E+03 1.65079E+02
 -1        49 1.93248E+06 1.86454E+06 7.58958E+03-5.34500E+07 1.11697E+04-2.20681E+01
 -1        50 1.22784E+06 5.63906E+06-1.36684E+04-6.31658E+07 1.06421E+04 6.77036E+03
 -1        51 1.30429E+08-1.53348E+06-1.94604E+06 3.25253E+06-5.59198E+04-2.63147E+06
 -1        52 1.30431E+08-1.53655E+06-1.94290E+06 3.25477E+06 5.56550E+04 2.63152E+06
 -1        53 3.07938E+08-4.09498E+07-4.05024E+07 1.18059E+07 1.60767E+06 2.19696E+07
 -1        54 2.99483E+08 4.17601E+06 4.08905E+06 1.21106E+05-3.60144E+05 2.39102E+06
 -1        55 2.82987E+08-2.09141E+06-1.96149E+06-4.92794E+05 9.44978E+04 1.15121E+06
 -1        56 2.60693E+08 4.09039E+05 3.64036E+05-9.61507E+05-6.48712E+04 1.75236E+05
 -1        57 2.36371E+08-5.60172E+04-5.92618E+04-1.03407E+06 1.29269E+04 2.82787E+05
 -1        58 2.11623E+08 2.23177E+04 4.43106E+03-1.11079E+06-5.08225E+03 2.63985E+05
 -1        59 1.86777E+08-5.19292E+04-1.19107E+04-1.12262E+06 4.16385E+03 2.95032E+05
 -1        60 1.62623E+08-2.01260E+05-1.57011E+04-9.58880E+05 1.62960E+04 2.82329E+05
 -1        61 1.41315E+08-4.99965E+05-1.30294E+04-3.62422E+05 2.04726E+04 1.61658E+05
 -1        62 1.27719E+08-7.58023E+05 8.99168E+04 1.70089E+06 1.33192E+05-2.61709E+05
 -1        63 4.25288E+08 1.53956E+08 1.57078E+08-1.13462E+08-2.82540E+05 1.59763E+07
 -1        64 4.25288E+08 1.53956E+08 1.57078E+08-1.13462E+08 2.82540E+05-1.59763E+07
 -1        65 1.27718E+08-7.57918E+05 9.04593E+04 1.70032E+06-1.33161E+05 2.61342E+05
 -1        66 1.41315E+08-4.99997E+05-1.31249E+04-3.62426E+05-2.04688E+04-1.61566E+05
 -1        67 1.62623E+08-2.01268E+05-1.57003E+04-9.58875E+05-1.62945E+04-2.82340E+05
 -1        68 1.86777E+08-5.19230E+04-1.19077E+04-1.12262E+06-4.16428E+03-2.95029E+05
 -1        69 2.11623E+08 2.23160E+04 4.43000E+03-1.11079E+06 5.08204E+03-2.63985E+05
 -1        70 2.36371E+08-5.60171E+04-5.92616E+04-1.03407E+06-1.29268E+04-2.82787E+05
 -1        71 2.60693E+08 4.09039E+05 3.64036E+05-9.61507E+05 6.48712E+04-1.75236E+05
 -1        72 2.82987E+08-2.09142E+06-1.96149E+06-4.92794E+05-9.44980E+04-1.15121E+06
 -1        73 2.99483E+08 4.17601E+06 4.08905E+06 1.21107E+05 3.60145E+05-2.39102E+06
 -1        74 3.07938E+08-4.09498E+07-4.05024E+07 1.18059E+07-1.60768E+06-2.19696E+07
 -1        75 1.22450E+08 5.10516E+07 4.28785E+07-4.45447E+06 1.86515E+06 3.65097E+07
 -1        76 2.37808E+08 8.60089E+07 7.97106E+07-8.83343E+06 2.77424E+06 7.11190E+07
 -1        77 5.10197E+07 1.62253E+07 2.79802E+05 2.52202E+06 9.92530E+04-1.78730E+05
 -1        78-1.14148E+07 2.81946E+07-2.68291E+05-4.56279E+07-1.18085E+04-2.35879E+05
 -1        79 2.37808E+08 8.60089E+07 7.97106E+07-8.83343E+06-2.77424E+06-7.11190E+07
 -1        80 1.22450E+08 5.10516E+07 4.28785E+07-4.45447E+06-1.86515E+06-3.65097E+07
 -1        81-1.14143E+07 2.81930E+07-2.67617E+05-4.56280E+07 1.22103E+04 2.36463E+05
 -1        82 5.10200E+07 1.62248E+07 2.75632E+05 2.52207E+06-9.95544E+04 1.77123E+05
 -1        83-1.38420E+08 3.16287E+05 7.73648E+05 3.00570E+06 1.68602E+05-2.70096E+06
 -1        84-1.38426E+08 3.14617E+05 7.68189E+05 3.00576E+06-1.68166E+05 2.70114E+06
 -1        85-1.36403E+08 3.56721E+05-1.29797E+05 2.11023E+06 1.24312E+05 4.63527E+05
 -1        86-1.49121E+08 3.71393E+05 2.37606E+04 1.07514E+05 6.60569E+03 9.98577E+03
 -1        87-1.68242E+08 1.85487E+05 4.21862E+03-6.01382E+05 1.54348E+04-1.72151E+05
 -1        88-1.90321E+08 8.77757E+04 9.45718E+03-8.94966E+05 5.25379E+03-2.32287E+05
 -1        89-2.13644E+08 1.87329E+04-5.90071E+03-9.79679E+05-3.18223E+03-2.32046E+05
 -1        90-2.37415E+08 8.89608E+04 5.90675E+04-9.65887E+05 1.44964E+04-2.68388E+05
 -1        91-2.61173E+08-3.86804E+05-3.63818E+05-9.29883E+05-6.37477E+04-1.69956E+05
 -1        92-2.83170E+08 2.10396E+06 1.96125E+06-4.80382E+05 9.51203E+04-1.14991E+06
 -1        93-2.99522E+08-4.16773E+06-4.08766E+06 1.25331E+05-3.59574E+05-2.39096E+06
 -1        94-3.07905E+08 4.09437E+07 4.04935E+07 1.18075E+07 1.60753E+06-2.19645E+07
 -1        95-4.25171E+08-1.53910E+08-1.57034E+08-1.13428E+08 2.82165E+05 1.59726E+07
 -1        96-4.25171E+08-1.53910E+08-1.57034E+08-1.13428E+08-2.82165E+05-1.59726E+07
 -1        97-3.07905E+08 4.09437E+07 4.04935E+07 1.18075E+07-1.60753E+06 2.19645E+07
 -1        98-2.99522E+08-4.16773E+06-4.08766E+06 1.25332E+05 3.59575E+05 2.39096E+06
 -1        99-2.83170E+08 2.10396E+06 1.96125E+06-4.80382E+05-9.51205E+04 1.14991E+06
 -1       100-2.61173E+08-3.86804E+05-3.63818E+05-9.29883E+05 6.37478E+04 1.69956E+05
 -1       101-2.37415E+08 8.89609E+04 5.90677E+04-9.65888E+05-1.44965E+04 2.68389E+05
 -1       102-2.13644E+08 1.87320E+04-5.90144E+03-9.79679E+05 3.18245E+03 2.32046E+05
 -1       103-1.90321E+08 8.77798E+04 9.45886E+03-8.94970E+05-5.25380E+03 2.32289E+05
 -1       104-1.68242E+08 1.85488E+05 4.22658E+03-6.01381E+05-1.54293E+04 1.72140E+05
 -1       105-1.49121E+08 3.71348E+05 2.36332E+04 1.07462E+05-6.63539E+03-9.90480E+03
 -1       106-1.36404E+08 3.56797E+05-1.29084E+05 2.11098E+06-1.24115E+05-4.63844E+05
 -1       107-2.37836E+08-8.60186E+07-7.97213E+07-8.81108E+06 2.77297E+06-7.11235E+07
 -1       108-1.22490E+08-5.10644E+07-4.28925E+07-4.42882E+06 1.86509E+06-3.65206E+07
 -1       109 1.26272E+07-8.98644E+06 3.18531E+05-5.62087E+07 1.07888E+04 2.74755E+05
 -1       110-4.47673E+07-1.05368E+07-2.85493E+05-5.95440E+06 1.90038E+05 1.77411E+05
 -1       111-1.22490E+08-5.10644E+07-4.28925E+07-4.42882E+06-1.86509E+06 3.65206E+07
 -1       112-2.37836E+08-8.60186E+07-7.97213E+07-8.81109E+06-2.77297E+06 7.11235E+07
 -1       113-4.47669E+07-1.05376E+07-2.89792E+05-5.95416E+06-1.89659E+05-1.79074E+05
 -1       114 1.26277E+07-8.98826E+06 3.19141E+05-5.62085E+07-1.16698E+04-2.74068E+05
 -1       115 1.24980E+07-1.29530E+06-2.31334E+06-7.60917E+06-3.81825E+04-1.57376E+07
 -1       116 1.24982E+07-1.28919E+06-2.31000E+06-7.61043E+06 3.76959E+04 1.57361E+07
 -1       117 1.48466E+08 3.86576E+07-4.52925E+05-7.06642E+07-4.14433E+06 7.70710E+06
 -1       118 1.27889E+08 1.30612E+08 2.40780E+05-1.21360E+08-1.76606E+06-4.38680E+05
 -1       119 4.42231E+07 1.72857E+08-1.34472E+06-7.60766E+07 5.55377E+06-3.53179E+06
 -1       120-2.56565E+07 6.22609E+07 7.45726E+05-1.29590E+07 1.79783E+07-4.70881E+04
 -1       121-2.56566E+07 6.22608E+07 7.45612E+05-1.29590E+07-1.79783E+07 4.70882E+04
 -1       122 4.42230E+07 1.72856E+08-1.34484E+06-7.60767E+07-5.55374E+06 3.53180E+06
 -1       123 1.27889E+08 1.30612E+08 2.41079E+05-1.21360E+08 1.76602E+06 4.38746E+05
 -1       124 1.48466E+08 3.86569E+07-4.53490E+05-7.06640E+07 4.14427E+06-7.70741E+06
 -1       125 6.10956E+07 5.04934E+05-3.56682E+05-7.96447E+06 2.00708E+05-7.82101E+06
 -1       126 6.10952E+07 5.03644E+05-3.57021E+05-7.96583E+06-2.00281E+05 7.82111E+06
 -1       127-7.12229E+06-7.86327E+07 7.44436E+05 2.67606E+07-2.16917E+06 1.21549E+06
 -1       128-5.85860E+07-5.73252E+07 8.85491E+05 6.11026E+07 3.66418E+05 8.05560E+04
 -1       129-6.43184E+07-3.24625E+06 1.06426E+06 1.89314E+07 1.26928E+06-2.53582E+06
 -1       130-6.91883E+04 2.49653E+07-2.60031E+05-6.90507E+06 5.97076E+06 1.35273E+04
 -1       131-6.90931E+04 2.49654E+07-2.60001E+05-6.90509E+06-5.97076E+06-1.35167E+04
 -1       132-6.43189E+07-3.24648E+06 1.06394E+06 1.89317E+07-1.26923E+06 2.53587E+06
 -1       133-5.85861E+07-5.73251E+07 8.85590E+05 6.11025E+07-3.66425E+05-8.05695E+04
 -1       134-7.12227E+06-7.86327E+07 7.44395E+05 2.67606E+07 2.16916E+06-1.21547E+06
 -1       135-7.84268E+06 3.74329E+07-1.69830E+03-7.91712E+07-7.22371E+05 7.22063E+04
 -1       136 3.40955E+07 3.51099E+06-3.75004E+04-8.83530E+07-1.57753E+04-2.46050E+05
 -1       137-7.84266E+06 3.74329E+07-1.63796E+03-7.91712E+07 7.22371E+05-7.22034E+04
 -1       138 3.40961E+07 3.51098E+06-3.48876E+04-8.83529E+07 1.48526E+04 2.45710E+05
 -1       139 6.70259E+07-5.11445E+07-1.45870E+06-7.26097E+06-1.09637E+05-1.59990E+07
 -1       140 6.70251E+07-5.11505E+07-1.46277E+06-7.26044E+06 1.10002E+05 1.59971E+07
 -1       141-7.48948E+07-6.79556E+07 4.35553E+05-1.71109E+07 3.87013E+06 6.78539E+06
 -1       142-9.94034E+07-1.00157E+08-2.78180E+05-4.02295E+07 1.16596E+06-1.02041E+06
 -1       143-7.09238E+07-7.80242E+07 1.35046E+06-1.61108E+07-6.00716E+06-3.64036E+06
 -1       144-7.09238E+07-7.80241E+07 1.35061E+06-1.61109E+07 6.00713E+06 3.64039E+06
 -1       145-9.94036E+07-1.00158E+08-2.78548E+05-4.02295E+07-1.16588E+06 1.02047E+06
 -1       146-7.48947E+07-6.79549E+07 4.36278E+05-1.71107E+07-3.87024E+06-6.78579E+06
 -1       147 2.41454E+07 2.26399E+05 3.43726E+06-5.90305E+06-8.81376E+04-7.29890E+06
 -1       148 2.41450E+07 2.30768E+05 3.43848E+06-5.90329E+06 8.76826E+04 7.29876E+06
 -1       149 1.42808E+07 1.23168E+08-6.52310E+05 4.48362E+07 2.31342E+06 1.25157E+06
 -1       150 8.69490E+07 8.71252E+07-9.78189E+05 9.06608E+07-1.88087E+05 2.66713E+05
 -1       151 1.21613E+08 1.35174E+07-7.99442E+05 4.38288E+07-1.10794E+06-2.22384E+06
 -1       152 1.21614E+08 1.35178E+07-7.98980E+05 4.38291E+07 1.10788E+06 2.22391E+06
 -1       153 8.69491E+07 8.71251E+07-9.78325E+05 9.06607E+07 1.88080E+05-2.66719E+05
 -1       154 1.42807E+07 1.23168E+08-6.52260E+05 4.48362E+07-2.31340E+06-1.25154E+06
 -1       155 3.91565E+07-2.13852E+07 2.03944E+04-8.38549E+07-3.25724E+05-3.19796E+05
 -1       156 3.91555E+07-2.13848E+07 1.76530E+04-8.38548E+07 3.26598E+05 3.18896E+05
 -1       157-9.88670E+06 2.59327E+07-1.46367E+03-8.24698E+07 5.78765E+05-3.99109E+04
 -1       158-9.88867E+06 2.59354E+07-2.49623E+02-8.24699E+07-5.79269E+05 4.10273E+04
 -1       159-2.57277E+07 4.71051E+07-6.59415E+04 2.43006E+06-1.13463E+07 2.25062E+04
 -1       160-2.57363E+07 4.71019E+07-7.19668E+04 2.43086E+06 1.13460E+07-2.16373E+04
 -1       161-4.84069E+06 1.63187E+08 8.07398E+05-9.66738E+07-7.39591E+06 3.90119E+06
 -1       162 1.23151E+08 1.10910E+08-9.57511E+05-1.57813E+08-2.26595E+05 1.92242E+06
 -1       163 1.95727E+08 3.49641E+06 2.31877E+05-1.07236E+08 3.67718E+06-6.24978E+06
 -1       164-4.83909E+06 1.63186E+08 8.06024E+05-9.66765E+07 7.39659E+06-3.89958E+06
 -1       165 1.23157E+08 1.10913E+08-9.50308E+05-1.57811E+08 2.22400E+05-1.92654E+06
 -1       166 1.95722E+08 3.49882E+06 2.27364E+05-1.07238E+08-3.67454E+06 6.24873E+06
 -1       167-1.51703E+08-3.08019E+06-1.37153E+05 9.99643E+06-2.34692E+05 1.53679E+06
 -1       168-1.27280E+08-2.00082E+06 3.41343E+05-4.87590E+06 3.00821E+05-2.52332E+06
 -1       169-1.51706E+08-3.08297E+06-1.33954E+05 1.00004E+07 2.36014E+05-1.53845E+06
 -1       170-1.27275E+08-1.99994E+06 3.40757E+05-4.87567E+06-3.01625E+05 2.52165E+06
 -1       171-2.40514E+07-8.77682E+07-8.23647E+05-4.37609E+07-7.24693E+06-3.68746E+06
 -1       172-1.00207E+08-8.52117E+07 6.47015E+05-8.41751E+07-5.93852E+05-2.33510E+06
 -1       173-1.28971E+08-3.23061E+07-1.48754E+05-5.51434E+07 3.20021E+06 4.88836E+06
 -1       174-2.40498E+07-8.77693E+07-8.25197E+05-4.37581E+07 7.24562E+06 3.68849E+06
 -1       175-1.00203E+08-8.52102E+07 6.54285E+05-8.41765E+07 5.97995E+05 2.33190E+06
 -1       176-1.28976E+08-3.23034E+07-1.52709E+05-5.51419E+07-3.20262E+06-4.88910E+06
 -1       177 1.67662E+08 1.31073E+06 4.41786E+05 1.16209E+07 2.80189E+05 2.03010E+06
 -1       178 1.85226E+08 2.66945E+06-6.15534E+05-2.58947E+06-2.12247E+05-1.26090E+06
 -1       179 1.67664E+08 1.31305E+06 4.38473E+05 1.16248E+07-2.81293E+05-2.03204E+06
 -1       180 1.85222E+08 2.66886E+06-6.14898E+05-2.58901E+06 2.13215E+05 1.25965E+06
 -1       181 8.85977E+05 6.00394E+06-1.55087E+04-5.93114E+07-7.45047E+04 1.07267E+04
 -1       182 8.84304E+05 6.00162E+06-1.63949E+04-5.93112E+07 7.45361E+04-1.07281E+04
 -1       183 1.65794E+06 2.13790E+06 7.46130E+03-5.13168E+07-7.23526E+03-9.57939E+02
 -1       184 1.65818E+06 2.13835E+06 7.72237E+03-5.13168E+07 7.24141E+03 9.08671E+02
 -1       185 1.51857E+06 3.62521E+05 1.59503E+03-4.75962E+07-7.41793E+02 1.44108E+02
 -1       186 1.51851E+06 3.62464E+05 1.54341E+03-4.75962E+07 7.40268E+02-1.51994E+02
 -1       187 1.10633E+06-2.86631E+05 3.45452E+02-4.61118E+07-1.08707E+03 1.39956E+02
 -1       188 1.10633E+06-2.86632E+05 3.52285E+02-4.61118E+07 1.08683E+03-1.44954E+02
 -1       189 7.07724E+05-4.22796E+05 1.45999E+01-4.56539E+07-1.94626E+03 1.35090E+02
 -1       190 7.07722E+05-4.22793E+05 1.44671E+01-4.56539E+07 1.94610E+03-1.37498E+02
 -1       191 4.08951E+05-3.62805E+05-1.74218E+02-4.56265E+07-6.71487E+03 7.68046E+01
 -1       192 4.08950E+05-3.62807E+05-1.74517E+02-4.56265E+07 6.71486E+03-7.77165E+01
 -1       193 2.14290E+05-2.54197E+05-1.51397E+02-4.56002E+07 2.09147E+04 3.86955E+01
 -1       194 2.14290E+05-2.54197E+05-1.51264E+02-4.56002E+07-2.09147E+04-3.91822E+01
 -1       195 9.94034E+04-1.55750E+05-1.32371E+02-4.55586E+07 2.24045E+05 5.36701E+01
 -1       196 9.94034E+04-1.55750E+05-1.32411E+02-4.55586E+07-2.24045E+05-5.39287E+01
 -1       197 3.70313E+04-8.34273E+04 4.87022E+01-4.30692E+07 1.04394E+06-6.18268E+01
 -1       198 3.70313E+04-8.34274E+04 4.87103E+01-4.30692E+07-1.04395E+06 6.16549E+01
 -1       199 5.82872E+03-3.66720E+04-1.77026E+03-3.51721E+07 2.63254E+06-9.47480E+02
 -1       200 5.82875E+03-3.66720E+04-1.77024E+03-3.51721E+07-2.63254E+06 9.47329E+02
 -1       201 1.26103E+08-6.18872E+05-1.54590E+06 1.10988E+06-5.37623E+04 7.75344E+05
 -1       202 1.26103E+08-6.21417E+05-1.54624E+06 1.10985E+06 5.36645E+04-7.74925E+05
 -1       203 1.40015E+08-4.32548E+05-8.02789E+05-2.72564E+05-4.25918E+04-1.82389E+05
 -1       204 1.40015E+08-4.31868E+05-8.02624E+05-2.72496E+05 4.26386E+04 1.82358E+05
 -1       205 1.61930E+08-1.79936E+05-2.68816E+05-6.25006E+05-2.47161E+04-5.13726E+05
 -1       206 1.61930E+08-1.80090E+05-2.68870E+05-6.25006E+05 2.47080E+04 5.13742E+05
 -1       207 1.86517E+08-4.77954E+04-4.28765E+04-7.39575E+05-9.07014E+03-5.57290E+05
 -1       208 1.86517E+08-4.77581E+04-4.28606E+04-7.39581E+05 9.07095E+03 5.57293E+05
 -1       209 2.11545E+08 1.72914E+04 3.57344E+04-7.38708E+05-2.61265E+03-5.16618E+05
 -1       210 2.11545E+08 1.72807E+04 3.57298E+04-7.38704E+05 2.61275E+03 5.16621E+05
 -1       211 2.36273E+08-5.17817E+04 1.92428E+04-6.82696E+05 1.97494E+03-4.70398E+05
 -1       212 2.36273E+08-5.17783E+04 1.92443E+04-6.82698E+05-1.97495E+03 4.70399E+05
 -1       213 2.60547E+08 3.03117E+05-1.85098E+05-7.02188E+05-9.94998E+03-4.78220E+05
 -1       214 2.60547E+08 3.03116E+05-1.85098E+05-7.02188E+05 9.95002E+03 4.78221E+05
 -1       215 2.84478E+08-1.61621E+06-1.45935E+06-1.73881E+05-2.01474E+04-1.42061E+06
 -1       216 2.84478E+08-1.61621E+06-1.45935E+06-1.73881E+05 2.01474E+04 1.42061E+06
 -1       217 3.10347E+08 3.70970E+06-4.45981E+06 9.53159E+03-4.42433E+05-1.40847E+06
 -1       218 3.10347E+08 3.70970E+06-4.45981E+06 9.53213E+03 4.42434E+05 1.40847E+06
 -1       219 3.50019E+08-3.10815E+07 4.28996E+06 1.23336E+07-2.32410E+05 4.51648E+06
 -1       220 3.50019E+08-3.10815E+07 4.28996E+06 1.23336E+07 2.32410E+05-4.51648E+06
 -1       221 2.20246E+07 1.61996E+07-3.85399E+04-4.45404E+07-4.05242E+02-3.08889E+02
 -1       222 4.14432E+07 7.03375E+06 2.61766E+04-4.34170E+07-7.33598E+03 1.43430E+04
 -1       223 5.36868E+07 2.35718E+06 2.08448E+04-4.28070E+07-3.63712E+03 8.41996E+03
 -1       224 6.30267E+07 4.04121E+05 8.64665E+03-4.24858E+07-1.64557E+03 5.79065E+03
 -1       225 7.14351E+07-2.62383E+05 6.70433E+03-4.22987E+07-9.27931E+02 1.03943E+04
 -1       226 7.97493E+07-4.49230E+05-7.38243E+03-4.22224E+07-3.67366E+03-5.78712E+03
 -1       227 8.81048E+07-3.31449E+05 1.03007E+05-4.22203E+07 6.18162E+03 2.52139E+04
 -1       228 9.60682E+07 4.52184E+05-3.30957E+05-4.23197E+07 1.39317E+04-3.34956E+05
 -1       229 9.81498E+07 3.08892E+06 5.90517E+05-3.95786E+07 6.86984E+05-7.73698E+05
 -1       230 9.14976E+07 1.05638E+07-9.47281E+06-3.28233E+07 7.22396E+05-6.35330E+06
 -1       231 7.32376E+07 8.67954E+06-9.60262E+04-1.38183E+07-1.12899E+05-7.35859E+03
 -1       232 9.19653E+07 3.83016E+06 2.21481E+04-2.23640E+07-6.55692E+04-8.17186E+03
 -1       233 1.08837E+08 1.23723E+06-9.54259E+01-2.59597E+07-3.44572E+04 1.22986E+04
 -1       234 1.25235E+08 2.26089E+05 1.38542E+03-2.70633E+07-1.09868E+04 1.57430E+04
 -1       235 1.41653E+08-1.22415E+05 1.87486E+03-2.71735E+07-1.55803E+03 3.24086E+04
 -1       236 1.58207E+08-2.37009E+05-1.84107E+04-2.69468E+07-1.74359E+03-5.46041E+03
 -1       237 1.74921E+08-2.59659E+05 1.90832E+05-2.66889E+07 3.68230E+02 1.01539E+05
 -1       238 1.91067E+08-1.04195E+05-7.36454E+05-2.66659E+07-6.98802E+04-5.83844E+05
 -1       239 2.03700E+08-4.77688E+05 1.58170E+06-2.90759E+07 4.98442E+05-1.31029E+06
 -1       240 2.01969E+08 1.11843E+07-1.75538E+07-3.87703E+07 1.21860E+05-1.24316E+07
 -1       241 2.20246E+07 1.61996E+07-3.87342E+04-4.45406E+07 4.87221E+01 6.21881E+01
 -1       242 4.14432E+07 7.03374E+06 2.62136E+04-4.34170E+07 7.36270E+03-1.42919E+04
 -1       243 5.36868E+07 2.35718E+06 2.08376E+04-4.28070E+07 3.63491E+03-8.42989E+03
 -1       244 6.30267E+07 4.04120E+05 8.64872E+03-4.24858E+07 1.64517E+03-5.78794E+03
 -1       245 7.14351E+07-2.62386E+05 6.70398E+03-4.22987E+07 9.28484E+02-1.03951E+04
 -1       246 7.97493E+07-4.49232E+05-7.38238E+03-4.22224E+07 3.67357E+03 5.78725E+03
 -1       247 8.81048E+07-3.31450E+05 1.03007E+05-4.22203E+07-6.18156E+03-2.52140E+04
 -1       248 9.60682E+07 4.52184E+05-3.30958E+05-4.23197E+07-1.39317E+04 3.34956E+05
 -1       249 9.81498E+07 3.08892E+06 5.90518E+05-3.95786E+07-6.86984E+05 7.73698E+05
 -1       250 9.14976E+07 1.05638E+07-9.47281E+06-3.28233E+07-7.22396E+05 6.35330E+06
 -1       251 7.32363E+07 8.67995E+06-9.39371E+04-1.38183E+07 1.13060E+05 7.98896E+03
 -1       252 9.19655E+07 3.83019E+06 2.16937E+04-2.23640E+07 6.55768E+04 7.94755E+03
 -1       253 1.08837E+08 1.23723E+06-1.26453E+01-2.59597E+07 3.44560E+04-1.22541E+04
 -1       254 1.25235E+08 2.26090E+05 1.36906E+03-2.70633E+07 1.09882E+04-1.57520E+04
 -1       255 1.41653E+08-1.22415E+05 1.87852E+03-2.71735E+07 1.55792E+03-3.24068E+04
 -1       256 1.58207E+08-2.37010E+05-1.84118E+04-2.69468E+07 1.74366E+03 5.46012E+03
 -1       257 1.74921E+08-2.59659E+05 1.90832E+05-2.66889E+07-3.68211E+02-1.01538E+05
 -1       258 1.91067E+08-1.04195E+05-7.36454E+05-2.66659E+07 6.98802E+04 5.83844E+05
 -1       259 2.03700E+08-4.77686E+05 1.58171E+06-2.90759E+07-4.98442E+05 1.31029E+06
 -1       260 2.01969E+08 1.11843E+07-1.75538E+07-3.87703E+07-1.21859E+05 1.24316E+07
 -1       261-6.13607E+06 2.10046E+07 4.91382E+05-4.28554E+07-1.01549E+05-9.51476E+05
 -1       262-6.12862E+06 2.10063E+07 4.91907E+05-4.28555E+07 1.01529E+05 9.51244E+05
 -1       263 5.40893E+07 1.21964E+07 8.47329E+05-2.38868E+06 1.52812E+05-2.91770E+05
 -1       264 5.40804E+07 1.21837E+07 8.51767E+05-2.39300E+06-1.52938E+05 2.92498E+05
 -1       265 8.90844E+07 3.81421E+07 3.36072E+07-1.75735E+07-4.01732E+05 5.38942E+06
 -1       266 8.90844E+07 3.81421E+07 3.36072E+07-1.75735E+07 4.01732E+05-5.38942E+06
 -1       267 1.67039E+08 5.88752E+07 5.89667E+07-2.22535E+07-4.68628E+05 1.07088E+07
 -1       268 1.67039E+08 5.88752E+07 5.89667E+07-2.22535E+07 4.68628E+05-1.07088E+07
 -1       269-1.36206E+08 2.29491E+05 1.20828E+06 1.29493E+06-1.92794E+03-1.13952E+06
 -1       270-1.36205E+08 2.28133E+05 1.20851E+06 1.29508E+06 1.88400E+03 1.13994E+06
 -1       271-1.48457E+08 2.91406E+05 7.59054E+05 3.00630E+03-1.62564E+04-1.47725E+05
 -1       272-1.48457E+08 2.91941E+05 7.59155E+05 2.78170E+03 1.62196E+04 1.47681E+05
 -1       273-1.67728E+08 1.54511E+05 3.24680E+05-4.07507E+05-1.61456E+04 2.91434E+05
 -1       274-1.67728E+08 1.54396E+05 3.24639E+05-4.07474E+05 1.61551E+04-2.91423E+05
 -1       275-1.90046E+08 7.45171E+04 1.14971E+05-5.97483E+05-8.55954E+03 4.28424E+05
 -1       276-1.90046E+08 7.45441E+04 1.14984E+05-5.97488E+05 8.55814E+03-4.28422E+05
 -1       277-2.13492E+08 1.75527E+04 2.19431E+04-6.54626E+05-4.74697E+03 4.50273E+05
 -1       278-2.13492E+08 1.75455E+04 2.19395E+04-6.54628E+05 4.74729E+03-4.50271E+05
 -1       279-2.37245E+08 8.08298E+04 1.94662E+04-6.37786E+05-5.00557E+02 4.40174E+05
 -1       280-2.37245E+08 8.08323E+04 1.94675E+04-6.37785E+05 5.00460E+02-4.40172E+05
 -1       281-2.60972E+08-2.83060E+05 2.08198E+05-6.80582E+05-1.19074E+04 4.66837E+05
 -1       282-2.60972E+08-2.83061E+05 2.08198E+05-6.80582E+05 1.19074E+04-4.66837E+05
 -1       283-2.84626E+08 1.62764E+06 1.47133E+06-1.64963E+05-2.14592E+04 1.41775E+06
 -1       284-2.84626E+08 1.62764E+06 1.47133E+06-1.64963E+05 2.14592E+04-1.41775E+06
 -1       285-3.10365E+08-3.70164E+06 4.46484E+06 1.31805E+04-4.43077E+05 1.40872E+06
 -1       286-3.10365E+08-3.70164E+06 4.46484E+06 1.31810E+04 4.43077E+05-1.40872E+06
 -1       287-3.49965E+08 3.10755E+07-4.28779E+06 1.23342E+07-2.33355E+05-4.51587E+06
 -1       288-3.49965E+08 3.10755E+07-4.28778E+06 1.23342E+07 2.33355E+05 4.51587E+06
 -1       289-1.88785E+07-7.87087E+06 7.35109E+04-4.75076E+07 7.45492E+02-4.63890E+03
 -1       290-3.82269E+07-4.53598E+06-2.64117E+04-4.32853E+07-4.27856E+03-1.13752E+04
 -1       291-5.12469E+07-2.27521E+06-1.80615E+04-4.17412E+07-3.22250E+03-6.75896E+03
 -1       292-6.14301E+07-1.11922E+06-9.09849E+03-4.13690E+07-2.08094E+03-4.96722E+03
 -1       293-7.04956E+07-5.28669E+05-7.53210E+03-4.14352E+07-1.56153E+03-9.73962E+03
 -1       294-7.92473E+07-1.72032E+05 6.57419E+03-4.16488E+07-4.18315E+03 6.09307E+03
 -1       295-8.78640E+07-8.25358E+04-1.03621E+05-4.18775E+07 5.82808E+03-2.50749E+04
 -1       296-9.59699E+07-6.95802E+05 3.30787E+05-4.21317E+07 1.37184E+04 3.35097E+05
 -1       297-9.81239E+07-3.21314E+06-5.91224E+05-3.94836E+07 6.86810E+05 7.73780E+05
 -1       298-9.15070E+07-1.06105E+07 9.47577E+06-3.27784E+07 7.22326E+05 6.35457E+06
 -1       299-7.13986E+07-6.45772E+06 1.07581E+05-1.52858E+07-4.85086E+04 1.96672E+04
 -1       300-9.20952E+07-3.37020E+06-3.18380E+04-2.10805E+07-4.51027E+04 6.10131E+03
 -1       301-1.09606E+08-1.43342E+06-2.42369E+03-2.40832E+07-2.92113E+04-9.23786E+03
 -1       302-1.26036E+08-5.76294E+05-3.65730E+03-2.54634E+07-1.32958E+04-1.26322E+04
 -1       303-1.42270E+08-1.88983E+05-3.12894E+03-2.60534E+07-5.35025E+03-2.97190E+04
 -1       304-1.58616E+08 1.50271E+04 1.78066E+04-2.62524E+07-5.14694E+03 7.30093E+03
 -1       305-1.75163E+08 1.20878E+05-1.91087E+05-2.62979E+07-2.03965E+03-1.00409E+05
 -1       306-1.91196E+08 2.73255E+04 7.36561E+05-2.64638E+07-7.13485E+04 5.84476E+05
 -1       307-2.03760E+08 4.41676E+05-1.58217E+06-2.89770E+07 4.97308E+05 1.31058E+06
 -1       308-2.01997E+08-1.11859E+07 1.75565E+07-3.87183E+07 1.21234E+05 1.24323E+07
 -1       309-1.88785E+07-7.87073E+06 7.33700E+04-4.75074E+07-2.09510E+02 4.41065E+03
 -1       310-3.82269E+07-4.53599E+06-2.63947E+04-4.32853E+07 4.22912E+03 1.14209E+04
 -1       311-5.12469E+07-2.27522E+06-1.80639E+04-4.17412E+07 3.23141E+03 6.75239E+03
 -1       312-6.14301E+07-1.11922E+06-9.09667E+03-4.13690E+07 2.07992E+03 4.96897E+03
 -1       313-7.04956E+07-5.28672E+05-7.53269E+03-4.14352E+07 1.56144E+03 9.73907E+03
 -1       314-7.92473E+07-1.72034E+05 6.57437E+03-4.16488E+07 4.18313E+03-6.09300E+03
 -1       315-8.78640E+07-8.25369E+04-1.03621E+05-4.18775E+07-5.82811E+03 2.50749E+04
 -1       316-9.59699E+07-6.95802E+05 3.30787E+05-4.21317E+07-1.37184E+04-3.35097E+05
 -1       317-9.81239E+07-3.21314E+06-5.91224E+05-3.94836E+07-6.86810E+05-7.73780E+05
 -1       318-9.15070E+07-1.06105E+07 9.47577E+06-3.27784E+07-7.22326E+05-6.35456E+06
 -1       319-7.14000E+07-6.45716E+06 1.09790E+05-1.52858E+07 4.82217E+04-1.90168E+04
 -1       320-9.20950E+07-3.37018E+06-3.23083E+04-2.10806E+07 4.50999E+04-6.31434E+03
 -1       321-1.09606E+08-1.43342E+06-2.33420E+03-2.40833E+07 2.92097E+04 9.28091E+03
 -1       322-1.26036E+08-5.76295E+05-3.67618E+03-2.54634E+07 1.32945E+04 1.26240E+04
 -1       323-1.42270E+08-1.88982E+05-3.12444E+03-2.60534E+07 5.35036E+03 2.97206E+04
 -1       324-1.58616E+08 1.50263E+04 1.78054E+04-2.62524E+07 5.14687E+03-7.30117E+03
 -1       325-1.75163E+08 1.20878E+05-1.91087E+05-2.62979E+07 2.03962E+03 1.00409E+05
 -1       326-1.91196E+08 2.73255E+04 7.36561E+05-2.64638E+07 7.13485E+04-5.84476E+05
 -1       327-2.03760E+08 4.41675E+05-1.58217E+06-2.89770E+07-4.97308E+05-1.31058E+06
 -1       328-2.01997E+08-1.11859E+07 1.75565E+07-3.87183E+07-1.21234E+05-1.24323E+07
 -1       329 6.62612E+06-9.64906E+05-5.12271E+05-5.35142E+07-4.41004E+04 1.02934E+06
 -1       330 6.63580E+06-9.64880E+05-5.11141E+05-5.35138E+07 4.44369E+04-1.02964E+06
 -1       331-4.92117E+07-5.78617E+06-6.47855E+05-1.09281E+07 3.69121E+05 2.95875E+05
 -1       332-4.92195E+07-5.79888E+06-6.43159E+05-1.09201E+07-3.68959E+05-2.95197E+05
 -1       333-8.91033E+07-3.81470E+07-3.36140E+07-1.75463E+07-4.01701E+05-5.39084E+06
 -1       334-8.91033E+07-3.81470E+07-3.36140E+07-1.75463E+07 4.01701E+05 5.39084E+06
 -1       335-1.67057E+08-5.88816E+07-5.89743E+07-2.22261E+07-4.68502E+05-1.07085E+07
 -1       336-1.67057E+08-5.88816E+07-5.89743E+07-2.22261E+07 4.68502E+05 1.07085E+07
 -1       337 1.73570E+08 3.64032E+07 1.89545E+07-7.32729E+07 5.64894E+06-1.09055E+07
 -1       338 1.73570E+08 3.63966E+07 1.89522E+07-7.32743E+07-5.64908E+06 1.09057E+07
 -1       339 1.45466E+08 1.46577E+08 2.55042E+07-1.38514E+08 2.12145E+06 2.50627E+04
 -1       340 1.45466E+08 1.46578E+08 2.55050E+07-1.38513E+08-2.12138E+06-2.51145E+04
 -1       341 4.37236E+07 2.02462E+08 2.37132E+07-8.18164E+07-9.19132E+06 5.20117E+06
 -1       342 4.37234E+07 2.02462E+08 2.37130E+07-8.18167E+07 9.19129E+06-5.20117E+06
 -1       343-5.93838E+07-4.89558E+06-7.78859E+06 1.92071E+07-1.35054E+06 4.15376E+06
 -1       344-5.93843E+07-4.89518E+06-7.78852E+06 1.92056E+07 1.35027E+06-4.15372E+06
 -1       345-5.47907E+07-5.41094E+07-9.11134E+06 5.68099E+07 1.33299E+04 5.82454E+05
 -1       346-5.47904E+07-5.41092E+07-9.11124E+06 5.68101E+07-1.32618E+04-5.82442E+05
 -1       347-8.42564E+06-7.21446E+07-8.59692E+06 2.60356E+07 3.67993E+06-1.09933E+06
 -1       348-8.42581E+06-7.21446E+07-8.59695E+06 2.60355E+07-3.67994E+06 1.09931E+06
 -1       349-1.15728E+07 5.81107E+07 1.50718E+04-4.05326E+07 1.67329E+06 3.15983E+05
 -1       350 1.95205E+07 3.12937E+07-1.70589E+05 3.82717E+06 1.74886E+06 1.68558E+06
 -1       351 5.62046E+07-7.56208E+06 1.39046E+05-3.06819E+07 5.33763E+05 1.94921E+06
 -1       352-1.15727E+07 5.81105E+07 1.39312E+04-4.05328E+07-1.67314E+06-3.15990E+05
 -1       353 1.95205E+07 3.12938E+07-1.70267E+05 3.82720E+06-1.74891E+06-1.68560E+06
 -1       354 5.62046E+07-7.56206E+06 1.38937E+05-3.06819E+07-5.33753E+05-1.94923E+06
 -1       355 3.58650E+07 2.57702E+06-2.82181E+05-6.26885E+07-5.46768E+04-2.45223E+06
 -1       356 3.58700E+07 2.57558E+06-2.85203E+05-6.26867E+07 5.47803E+04 2.45268E+06
 -1       357-7.84728E+06 3.79677E+07 1.88292E+04-5.48139E+07-3.71999E+06 1.22636E+05
 -1       358-7.84735E+06 3.79677E+07 1.87399E+04-5.48139E+07 3.71999E+06-1.22630E+05
 -1       359-1.00666E+08-6.64740E+07-2.00440E+07-2.09064E+07-5.31204E+06-9.88669E+06
 -1       360-1.00667E+08-6.64663E+07-2.00413E+07-2.09085E+07 5.31224E+06 9.88697E+06
 -1       361-1.16261E+08-1.16877E+08-2.49754E+07-5.74158E+07-1.23223E+06 8.88138E+05
 -1       362-1.16262E+08-1.16879E+08-2.49764E+07-5.74150E+07 1.23214E+06-8.88205E+05
 -1       363-6.99367E+07-1.06712E+08-2.24477E+07-2.10306E+07 9.87275E+06 5.40539E+06
 -1       364-6.99364E+07-1.06711E+08-2.24474E+07-2.10310E+07-9.87271E+06-5.40539E+06
 -1       365 1.16078E+08 1.49499E+07 7.49689E+06 4.36334E+07 1.08942E+06 3.51739E+06
 -1       366 1.16078E+08 1.49503E+07 7.49698E+06 4.36318E+07-1.08914E+06-3.51733E+06
 -1       367 8.32922E+07 8.35122E+07 8.86218E+06 8.62248E+07-3.23106E+05 2.74518E+05
 -1       368 8.32922E+07 8.35117E+07 8.86204E+06 8.62250E+07 3.23045E+05-2.74517E+05
 -1       369 1.56795E+07 1.16796E+08 8.13795E+06 4.43155E+07-3.87985E+06-1.20392E+06
 -1       370 1.56796E+07 1.16796E+08 8.13796E+06 4.43154E+07 3.87985E+06 1.20390E+06
 -1       371 6.99176E+07-5.91548E+07-6.69024E+04-1.90118E+06-1.78660E+06 3.28477E+05
 -1       372 4.53596E+06 3.14238E+06 2.26389E+05 5.03045E+07-1.68080E+06 1.68018E+06
 -1       373-6.09738E+07 7.12743E+07-1.57222E+05-3.89926E+05-4.62699E+05 1.85638E+06
 -1       374 6.99177E+07-5.91547E+07-6.55615E+04-1.90134E+06 1.78656E+06-3.28410E+05
 -1       375 4.53594E+06 3.14228E+06 2.26000E+05 5.03045E+07 1.68084E+06-1.68021E+06
 -1       376-6.09738E+07 7.12743E+07-1.57099E+05-3.89938E+05 4.62687E+05-1.85641E+06
 -1       377 3.77148E+07-2.06844E+07 6.19797E+04-5.81823E+07-6.40700E+05-2.68632E+06
 -1       378 3.77078E+07-2.06809E+07 6.54907E+04-5.81786E+07 6.40567E+05 2.68707E+06
 -1       379-1.00146E+07 2.64171E+07-4.06912E+04-6.88795E+07-3.54256E+06 7.44537E+04
 -1       380-9.99905E+06 2.64067E+07-3.61610E+04-6.88776E+07 3.54286E+06-7.45607E+04
 -1       381 4.67816E+07 1.80812E+07-1.25731E+04-7.91824E+07 1.85579E+05-1.45599E+06
 -1       382 1.67215E+07 1.40016E+07-3.47563E+05-1.51595E+07-1.56449E+06-1.07716E+06
 -1       383 5.75467E+06 3.59690E+07 1.38554E+05-6.96595E+07-1.89836E+06 5.31226E+04
 -1       384 4.67821E+07 1.80792E+07-1.35234E+04-7.91814E+07-1.85688E+05 1.45562E+06
 -1       385 1.67255E+07 1.40054E+07-3.41029E+05-1.51618E+07 1.56464E+06 1.07974E+06
 -1       386 5.75256E+06 3.59697E+07 1.34301E+05-6.96572E+07 1.89870E+06-5.25961E+04
 -1       387-5.27254E+06 1.89897E+08 1.29370E+07-1.01713E+08-9.35905E+06 4.64864E+06
 -1       388 1.38914E+08 1.31700E+08 2.01207E+07-1.75882E+08 2.88271E+05 2.53797E+06
 -1       389-5.30777E+06 1.89901E+08 1.29313E+07-1.01699E+08 9.35968E+06-4.64971E+06
 -1       390 1.38943E+08 1.31768E+08 2.01482E+07-1.75957E+08-2.83115E+05-2.53378E+06
 -1       391 2.17757E+08 2.35485E+06 2.13817E+07-1.10533E+08 4.54096E+06-8.83749E+06
 -1       392 2.17770E+08 2.32064E+06 2.13845E+07-1.10522E+08-4.54318E+06 8.84073E+06
 -1       393-1.56865E+08-4.26929E+06-5.23861E+06 7.36099E+06 6.91359E+05-2.30233E+06
 -1       394-1.56862E+08-4.29306E+06-5.23300E+06 7.38905E+06-6.93184E+05 2.30261E+06
 -1       395-1.28265E+08-2.27134E+06-1.22518E+07-1.91437E+06 3.74699E+05 4.17212E+06
 -1       396-1.28258E+08-2.25738E+06-1.22484E+07-1.91509E+06-3.73933E+05-4.17088E+06
 -1       397-5.37341E+07 2.16302E+07 4.89906E+04-5.20330E+07 2.16948E+05 1.40051E+06
 -1       398 4.64974E+05-7.96496E+04 3.29472E+05 1.62324E+07-1.49810E+06 1.03222E+06
 -1       399 4.24947E+07-3.91072E+07-1.19446E+05-3.44311E+07-2.16128E+06 1.31326E+04
 -1       400-5.37341E+07 2.16286E+07 4.79104E+04-5.20340E+07-2.15788E+05-1.40069E+06
 -1       401 4.68325E+05-7.58469E+04 3.35643E+05 1.62348E+07 1.49759E+06-1.02946E+06
 -1       402 4.24932E+07-3.91068E+07-1.23406E+05-3.44333E+07 2.16086E+06-1.31346E+04
 -1       403-2.34437E+07-1.12968E+08-1.18536E+07-4.82420E+07-9.35987E+06-4.57422E+06
 -1       404-2.34679E+07-1.12970E+08-1.18580E+07-4.82555E+07 9.35972E+06 4.57351E+06
 -1       405-1.15106E+08-1.06572E+08-1.89400E+07-1.02272E+08-2.90834E+05-3.10633E+06
 -1       406-1.15084E+08-1.06506E+08-1.89173E+07-1.02214E+08 2.85457E+05 3.10978E+06
 -1       407-1.51282E+08-3.22674E+07-2.25491E+07-5.97597E+07 4.11697E+06 7.36617E+06
 -1       408-1.51274E+08-3.22903E+07-2.25455E+07-5.97685E+07-4.11505E+06-7.36296E+06
 -1       409 1.71129E+08 2.46914E+06 3.98928E+06 8.16328E+06-6.35771E+05-3.28104E+06
 -1       410 1.71137E+08 2.48999E+06 3.98506E+06 8.18745E+06 6.37352E+05 3.28159E+06
 -1       411 1.88743E+08 2.99556E+06 1.38730E+07-6.63787E+05 5.61850E+05-2.45528E+06
 -1       412 1.88750E+08 3.00145E+06 1.38744E+07-6.64798E+05-5.62548E+05 2.45610E+06
 -1       413 2.40754E+07 1.39853E+07 1.67580E+05-4.27004E+07-6.39845E+04-1.11789E+05
 -1       414 2.40757E+07 1.39846E+07 1.67730E+05-4.26989E+07 6.40675E+04 1.11877E+05
 -1       415 4.19417E+07 6.49105E+06 7.06875E+04-4.18646E+07-3.00165E+04-6.75576E+03
 -1       416 4.19417E+07 6.49116E+06 7.06532E+04-4.18649E+07 3.00088E+04 6.71509E+03
 -1       417 5.36984E+07 2.31827E+06 3.32234E+04-4.13067E+07-1.67781E+04-3.62953E+03
 -1       418 5.36984E+07 2.31825E+06 3.32320E+04-4.13067E+07 1.67860E+04 3.63038E+03
 -1       419 6.29446E+07 4.73441E+05 1.66598E+04-4.09789E+07-6.64568E+03-2.85780E+03
 -1       420 6.29446E+07 4.73443E+05 1.66579E+04-4.09790E+07 6.65060E+03 2.85314E+03
 -1       421 7.13453E+07-1.91174E+05 6.62040E+03-4.07839E+07-3.02547E+03 1.41799E+03
 -1       422 7.13453E+07-1.91174E+05 6.62102E+03-4.07838E+07 3.02694E+03-1.41860E+03
 -1       423 7.96124E+07-3.65920E+05-7.83706E+02-4.06843E+07-6.19422E+03-1.39019E+03
 -1       424 7.96124E+07-3.65921E+05-7.83891E+02-4.06843E+07 6.19506E+03 1.38955E+03
 -1       425 8.79535E+07-2.63069E+05-1.76783E+05-4.06484E+07 1.82203E+04-6.19472E+04
 -1       426 8.79535E+07-2.63069E+05-1.76783E+05-4.06484E+07-1.82199E+04 6.19470E+04
 -1       427 9.67506E+07 1.15031E+06-2.13928E+05-4.08194E+07 1.57052E+05-5.39563E+05
 -1       428 9.67506E+07 1.15031E+06-2.13928E+05-4.08194E+07-1.57052E+05 5.39563E+05
 -1       429 1.04051E+08 4.36636E+06-2.38854E+06-3.98006E+07 1.01095E+06-1.05975E+06
 -1       430 1.04051E+08 4.36636E+06-2.38854E+06-3.98006E+07-1.01095E+06 1.05975E+06
 -1       431 1.08758E+08 2.11793E+07 7.09795E+06-3.86774E+07 2.78806E+06 1.95333E+06
 -1       432 1.08758E+08 2.11793E+07 7.09795E+06-3.86774E+07-2.78806E+06-1.95333E+06
 -1       433 7.37532E+07 7.33489E+06 2.27221E+05-1.50739E+07-1.34248E+05-4.22094E+04
 -1       434 7.37543E+07 7.33680E+06 2.25654E+05-1.50742E+07 1.34281E+05 4.17822E+04
 -1       435 9.16745E+07 3.51341E+06 1.23131E+05-2.17917E+07-1.33581E+05-4.23007E+04
 -1       436 9.16743E+07 3.51305E+06 1.23353E+05-2.17917E+07 1.33602E+05 4.24336E+04
 -1       437 1.08531E+08 1.24040E+06 6.82691E+04-2.46396E+07-6.97941E+04-3.54894E+04
 -1       438 1.08531E+08 1.24046E+06 6.82244E+04-2.46396E+07 6.98048E+04 3.54723E+04
 -1       439 1.25071E+08 2.78118E+05 3.17996E+04-2.55172E+07-2.60287E+04-1.84219E+04
 -1       440 1.25071E+08 2.78110E+05 3.18089E+04-2.55172E+07 2.60324E+04 1.84298E+04
 -1       441 1.41567E+08-7.45911E+04 1.01069E+04-2.56066E+07-5.94966E+03 2.71318E+02
 -1       442 1.41567E+08-7.45911E+04 1.01047E+04-2.56066E+07 5.95118E+03-2.71237E+02
 -1       443 1.58058E+08-1.90773E+05-7.89700E+03-2.54165E+07-2.41473E+03 6.44554E+03
 -1       444 1.58058E+08-1.90773E+05-7.89659E+03-2.54165E+07 2.41552E+03-6.44494E+03
 -1       445 1.74744E+08-2.58364E+05-2.71680E+05-2.52089E+07-1.85057E+04-7.54064E+04
 -1       446 1.74744E+08-2.58364E+05-2.71681E+05-2.52089E+07 1.85060E+04 7.54065E+04
 -1       447 1.92081E+08 5.89533E+05-4.72411E+05-2.51810E+07 1.79991E+04-8.46746E+05
 -1       448 1.92081E+08 5.89533E+05-4.72411E+05-2.51810E+07-1.79989E+04 8.46746E+05
 -1       449 2.14398E+08 6.31743E+05-3.36801E+06-2.88491E+07 1.35492E+04-1.95097E+06
 -1       450 2.14398E+08 6.31742E+05-3.36801E+06-2.88491E+07-1.35492E+04 1.95097E+06
 -1       451 2.39885E+08 3.24475E+07 1.88770E+07-4.47969E+07 1.74727E+06 3.41934E+06
 -1       452 2.39885E+08 3.24475E+07 1.88770E+07-4.47969E+07-1.74727E+06-3.41934E+06
 -1       453-2.16925E+07-4.91061E+06-1.28622E+05-4.58736E+07-4.01688E+04 1.11542E+05
 -1       454-2.16923E+07-4.91108E+06-1.28520E+05-4.58757E+07 3.99901E+04-1.11471E+05
 -1       455-3.92672E+07-3.45754E+06-6.38911E+04-4.19721E+07-2.05796E+04 4.84173E+03
 -1       456-3.92672E+07-3.45754E+06-6.39412E+04-4.19718E+07 2.05869E+04-4.87746E+03
 -1       457-5.15995E+07-1.89392E+06-2.55997E+04-4.04475E+07-1.40700E+04 6.22976E+02
 -1       458-5.15995E+07-1.89391E+06-2.55801E+04-4.04476E+07 1.40577E+04-6.22934E+02
 -1       459-6.15385E+07-9.91934E+05-1.58885E+04-4.00118E+07-7.65631E+03 1.85465E+03
 -1       460-6.15385E+07-9.91940E+05-1.58939E+04-4.00118E+07 7.65183E+03-1.85796E+03
 -1       461-7.05027E+07-4.97947E+05-7.72797E+03-4.00159E+07-4.82258E+03-1.62020E+03
 -1       462-7.05027E+07-4.97946E+05-7.72652E+03-4.00159E+07 4.82089E+03 1.61977E+03
 -1       463-7.91542E+07-2.08455E+05-7.63551E+02-4.01659E+07-7.80366E+03 1.46236E+03
 -1       464-7.91542E+07-2.08456E+05-7.63918E+02-4.01659E+07 7.80291E+03-1.46292E+03
 -1       465-8.77291E+07-1.32908E+05 1.75559E+05-4.03344E+07 1.70735E+04 6.20754E+04
 -1       466-8.77291E+07-1.32908E+05 1.75559E+05-4.03344E+07-1.70738E+04-6.20756E+04
 -1       467-9.66562E+07-1.38959E+06 2.13095E+05-4.06451E+07 1.56326E+05 5.39722E+05
 -1       468-9.66562E+07-1.38959E+06 2.13095E+05-4.06451E+07-1.56326E+05-5.39722E+05
 -1       469-1.04024E+08-4.49184E+06 2.38791E+06-3.97108E+07 1.01041E+06 1.05966E+06
 -1       470-1.04024E+08-4.49184E+06 2.38791E+06-3.97108E+07-1.01041E+06-1.05966E+06
 -1       471-1.08765E+08-2.12303E+07-7.10139E+06-3.86328E+07 2.78772E+06-1.95488E+06
 -1       472-1.08765E+08-2.12303E+07-7.10139E+06-3.86328E+07-2.78772E+06 1.95488E+06
 -1       473-7.29059E+07-4.60191E+06-1.13186E+05-1.70261E+07-5.04860E+03-2.49529E+03
 -1       474-7.29049E+07-4.59974E+06-1.14744E+05-1.70256E+07 5.04327E+03 2.05258E+03
 -1       475-9.23438E+07-2.70185E+06-6.63138E+04-2.10471E+07-7.68222E+04 5.08888E+03
 -1       476-9.23441E+07-2.70222E+06-6.60915E+04-2.10470E+07 7.68019E+04-4.95064E+03
 -1       477-1.09531E+08-1.24164E+06-4.68066E+04-2.31911E+07-5.52719E+04 1.66737E+04
 -1       478-1.09531E+08-1.24158E+06-4.68547E+04-2.31911E+07 5.52624E+04-1.66876E+04
 -1       479-1.25941E+08-5.32938E+05-2.98257E+04-2.42046E+07-2.82663E+04 1.17823E+04
 -1       480-1.25941E+08-5.32942E+05-2.98144E+04-2.42046E+07 2.82635E+04-1.17748E+04
 -1       481-1.42186E+08-1.97654E+05-1.56209E+04-2.46582E+07-1.32584E+04-1.13689E+03
 -1       482-1.42186E+08-1.97655E+05-1.56238E+04-2.46582E+07 1.32571E+04 1.13705E+03
 -1       483-1.58446E+08-1.95984E+04 1.48534E+03-2.48149E+07-9.45940E+03-5.31079E+03
 -1       484-1.58446E+08-1.95982E+04 1.48599E+03-2.48149E+07 9.45876E+03 5.31133E+03
 -1       485-1.74964E+08 1.19641E+05 2.66569E+05-2.48630E+07-2.37175E+04 7.68723E+04
 -1       486-1.74964E+08 1.19641E+05 2.66569E+05-2.48630E+07 2.37172E+04-7.68722E+04
 -1       487-1.92192E+08-6.70069E+05 4.68967E+05-2.49982E+07 1.46539E+04 8.47910E+05
 -1       488-1.92192E+08-6.70069E+05 4.68966E+05-2.49982E+07-1.46541E+04-8.47910E+05
 -1       489-2.14446E+08-6.71655E+05 3.36571E+06-2.87566E+07 1.14928E+04 1.95127E+06
 -1       490-2.14446E+08-6.71654E+05 3.36571E+06-2.87566E+07-1.14929E+04-1.95128E+06
 -1       491-2.39902E+08-3.24522E+07-1.88779E+07-4.47438E+07 1.74519E+06-3.41972E+06
 -1       492-2.39902E+08-3.24522E+07-1.88779E+07-4.47438E+07-1.74519E+06 3.41972E+06
 -1       493 1.06274E+07 4.75073E+07 1.47695E+05-3.20878E+07 3.78032E+06-8.49840E+05
 -1       494 1.06272E+07 4.75097E+07 1.49519E+05-3.20861E+07-3.78026E+06 8.49751E+05
 -1       495 3.03621E+07 3.84988E+07 2.78828E+05-5.37328E+06 3.26140E+06 2.72907E+06
 -1       496 3.03620E+07 3.84982E+07 2.78242E+05-5.37368E+06-3.26143E+06-2.72905E+06
 -1       497 4.78190E+07 1.59663E+07 8.64143E+05-2.54667E+07-4.35722E+05 4.13110E+06
 -1       498 4.78191E+07 1.59663E+07 8.64298E+05-2.54666E+07 4.35728E+05-4.13109E+06
 -1       499 4.82286E+07-5.00502E+07-3.11766E+05 4.66869E+06-3.84931E+06-7.53320E+05
 -1       500 4.82290E+07-5.00536E+07-3.13922E+05 4.67092E+06 3.84923E+06 7.53162E+05
 -1       501-4.64732E+06-5.87988E+06-2.03125E+05 4.10394E+07-3.05681E+06 2.85802E+06
 -1       502-4.64724E+06-5.87895E+06-2.02423E+05 4.10390E+07 3.05684E+06-2.85798E+06
 -1       503-5.17927E+07 4.77136E+07-8.15117E+05 5.76852E+06 6.42952E+05 4.00426E+06
 -1       504-5.17929E+07 4.77136E+07-8.15288E+05 5.76869E+06-6.42958E+05-4.00425E+06
 -1       505 1.66461E+07 2.58804E+07-9.60338E+05-2.47639E+07 2.99251E+06 2.43619E+06
 -1       506 1.68762E+07 2.60002E+07-9.52990E+05-2.49048E+07-2.99386E+06-2.44085E+06
 -1       507 4.00846E+07 3.91163E+07 1.65956E+05-7.55721E+07-1.81776E+06 3.35670E+06
 -1       508 1.96939E+07 3.24083E+07 1.59139E+06-6.31185E+07 4.13607E+06-1.14368E+06
 -1       509 4.00387E+07 3.91661E+07 1.68376E+05-7.55883E+07 1.82117E+06-3.35631E+06
 -1       510 1.97837E+07 3.23827E+07 1.59106E+06-6.31487E+07-4.13575E+06 1.14615E+06
 -1       511 8.95340E+05-1.22983E+07 1.13239E+06 5.71081E+06-2.73136E+06 2.36996E+06
 -1       512-4.73970E+07 1.83742E+06-1.16712E+05-4.81968E+07 1.89004E+06 3.22306E+06
 -1       513 6.75280E+05-1.23917E+07 1.12478E+06 5.63025E+06 2.73285E+06-2.37523E+06
 -1       514 3.07081E+07-3.72630E+07-1.70252E+06-3.12371E+07-4.47413E+06-9.98799E+05
 -1       515-4.73757E+07 1.81980E+06-1.19489E+05-4.82168E+07-1.89401E+06-3.22265E+06
 -1       516 3.06420E+07-3.72627E+07-1.70354E+06-3.12704E+07 4.47398E+06 1.00091E+06
 -1       517 6.41146E+06 2.13878E+07 2.13866E+03-4.45580E+07-2.79106E+04-1.30884E+05
 -1       518 2.30944E+07 1.51037E+07 4.89600E+04-4.36183E+07-2.66396E+04-8.07922E+04
 -1       519 9.88032E+06 1.66391E+07 3.44071E+05-4.24183E+07-9.48447E+04-4.88101E+05
 -1       520-8.58395E+06 2.45945E+07 3.50346E+04-4.41928E+07-6.19324E+04-6.82825E+05
 -1       521-2.72208E+06 1.42735E+07-5.25831E+04-7.45423E+07-5.65210E+05 1.68124E+04
 -1       522-9.05229E+05 1.03318E+07 1.73796E+04-6.48750E+07-4.47787E+05 2.01156E+04
 -1       523 1.05586E+06 5.82204E+06-1.38338E+04-6.12192E+07-5.05110E+04 1.04617E+04
 -1       524-5.75379E+05 9.91312E+06 1.85008E+04-7.07536E+07-1.64953E+05 8.71067E+03
 -1       525-4.53636E+06 1.76229E+07 5.35406E+05-5.79752E+07-4.97022E+05-4.19269E+05
 -1       526-7.05113E+06 2.15487E+07 3.07882E+05-6.37362E+07-1.99264E+05-1.80519E+04
 -1       527 1.17135E+07 1.04118E+07 6.94873E+04-5.14173E+07-7.16535E+04-6.38452E+04
 -1       528 1.07483E+07 1.14451E+07-1.85591E+04-5.43719E+07 3.54975E+03-5.16682E+04
 -1       529 2.39867E+07 1.39624E+07 1.98889E+05-4.27038E+07 2.34605E+02 1.41028E+02
 -1       530 9.87945E+06 1.66414E+07 3.43322E+05-4.24188E+07 9.46066E+04 4.88145E+05
 -1       531-6.51547E+06 2.10155E+07 6.44330E+05-4.29532E+07-2.63339E+02-3.00466E+02
 -1       532-2.88246E+06 1.44914E+07-7.51986E+04-7.09041E+07-1.84904E+02 1.63469E+02
 -1       533-9.02808E+05 1.03337E+07 1.87500E+04-6.48751E+07 4.47766E+05-2.00372E+04
 -1       534 8.87264E+05 6.00174E+06-1.74178E+04-5.93502E+07 3.84600E+01-3.12049E+01
 -1       535-4.53367E+06 1.76221E+07 5.34689E+05-5.79721E+07 4.97295E+05 4.19363E+05
 -1       536 1.17138E+07 1.04130E+07 7.02554E+04-5.14169E+07 7.16110E+04 6.38486E+04
 -1       537 2.30945E+07 1.51034E+07 4.88234E+04-4.36176E+07 2.63098E+04 8.06165E+04
 -1       538 6.41160E+06 2.13872E+07 2.58340E+03-4.45584E+07 2.81526E+04 1.30802E+05
 -1       539-8.57980E+06 2.45947E+07 3.59705E+04-4.41928E+07 6.23768E+04 6.83185E+05
 -1       540-2.72531E+06 1.42757E+07-5.29361E+04-7.45427E+07 5.65367E+05-1.69439E+04
 -1       541-5.75375E+05 9.91358E+06 1.86724E+04-7.07536E+07 1.64981E+05-8.69637E+03
 -1       542 1.05510E+06 5.82067E+06-1.44908E+04-6.12191E+07 5.04817E+04-1.03726E+04
 -1       543-7.05124E+06 2.15486E+07 3.08260E+05-6.37359E+07 1.98726E+05 1.80362E+04
 -1       544 1.07485E+07 1.14450E+07-1.87246E+04-5.43720E+07-3.54698E+03 5.16552E+04
 -1       545 3.17142E+07 1.14464E+07 1.16552E+03-4.39168E+07-1.49220E+04-1.56755E+04
 -1       546 4.16981E+07 6.76881E+06 4.50586E+04-4.26390E+07-2.02288E+04-1.85610E+03
 -1       547 3.29462E+07 1.00384E+07 1.07180E+05-4.22345E+07-5.11045E+04-7.91059E+04
 -1       548 1.22403E+06 4.07774E+06-1.40311E+04-5.51558E+07-4.88132E+04 4.83704E+03
 -1       549 1.79480E+06 2.00150E+06 7.94206E+03-5.23812E+07-4.72257E+03-1.39974E+03
 -1       550 1.53788E+06 3.76168E+06-9.12961E+03-5.81315E+07-1.49458E+04 2.37862E+02
 -1       551 2.14783E+07 4.46443E+06 1.62766E+04-4.68248E+07-1.53030E+04-5.87517E+03
 -1       552 2.13207E+07 4.61615E+06-1.35058E+04-4.86977E+07 9.98321E+02-9.00128E+03
 -1       553 4.19304E+07 6.47829E+06 7.73910E+04-4.18683E+07-1.21587E+01-2.23081E+01
 -1       554 3.29462E+07 1.00382E+07 1.07214E+05-4.22343E+07 5.10997E+04 7.90945E+04
 -1       555 1.22398E+06 4.07680E+06-1.41313E+04-5.51558E+07 4.88237E+04-4.82621E+03
 -1       556 1.65889E+06 2.13757E+06 6.75182E+03-5.13212E+07 7.16358E+00-5.91515E+01
 -1       557 2.14781E+07 4.46419E+06 1.61307E+04-4.68247E+07 1.53105E+04 5.84758E+03
 -1       558 4.16981E+07 6.76887E+06 4.50862E+04-4.26392E+07 2.02466E+04 1.86327E+03
 -1       559 3.17141E+07 1.14464E+07 1.09162E+03-4.39168E+07 1.48584E+04 1.56613E+04
 -1       560 1.53800E+06 3.76154E+06-9.20509E+03-5.81315E+07 1.49370E+04-2.53014E+02
 -1       561 1.79488E+06 2.00171E+06 8.11345E+03-5.23811E+07 4.71908E+03 1.42916E+03
 -1       562 2.13206E+07 4.61613E+06-1.34620E+04-4.86977E+07-1.01526E+03 9.02338E+03
 -1       563 4.74454E+07 4.64331E+06-6.26283E+03-4.30970E+07-7.44954E+03 3.24983E+03
 -1       564 5.36924E+07 2.33977E+06 2.39179E+04-4.20556E+07-1.00406E+04 1.30103E+03
 -1       565 4.77121E+07 4.34402E+06 2.73413E+04-4.15715E+07-2.39904E+04-1.43144E+04
 -1       566 1.56682E+06 1.25727E+06-7.73639E+02-4.94496E+07-4.84094E+03-2.52649E+02
 -1       567 1.61046E+06 2.69046E+05 1.00619E+03-4.84040E+07-1.84880E+03 3.31828E+02
 -1       568 1.79312E+06 1.02614E+06-2.67806E+03-5.13388E+07 3.22946E+03 1.26558E+03
 -1       569 2.74787E+07 1.40212E+06 5.08361E+03-4.45390E+07-7.01017E+03-3.52114E+03
 -1       570 2.75512E+07 1.33477E+06-1.65663E+03-4.61011E+07-1.25054E+03-2.02847E+03
 -1       571 5.36987E+07 2.31418E+06 3.94644E+04-4.13093E+07 2.97503E+00 3.02974E-01
 -1       572 4.77121E+07 4.34408E+06 2.73257E+04-4.15716E+07 2.39899E+04 1.43034E+04
 -1       573 1.56675E+06 1.25740E+06-7.51382E+02-4.94496E+07 4.84121E+03 2.28999E+02
 -1       574 1.51828E+06 3.62333E+05 1.74538E+03-4.75968E+07-1.11283E+00 5.40303E+00
 -1       575 2.74787E+07 1.40216E+06 5.10684E+03-4.45390E+07 7.01579E+03 3.51371E+03
 -1       576 5.36924E+07 2.33976E+06 2.39143E+04-4.20555E+07 1.00444E+04-1.30545E+03
 -1       577 4.74454E+07 4.64331E+06-6.24451E+03-4.30970E+07 7.46901E+03-3.24400E+03
 -1       578 1.79303E+06 1.02611E+06-2.68350E+03-5.13388E+07-3.22950E+03-1.25974E+03
 -1       579 1.61042E+06 2.69027E+05 9.83067E+02-4.84040E+07 1.84891E+03-3.51121E+02
 -1       580 2.75512E+07 1.33476E+06-1.66605E+03-4.61011E+07 1.24990E+03 2.02598E+03
 -1       581 5.82828E+07 1.36975E+06-4.48085E+03-4.26492E+07-2.59446E+03 5.47157E+03
 -1       582 6.29859E+07 4.39581E+05 1.15017E+04-4.17315E+07-4.37982E+03 3.04727E+03
 -1       583 5.82595E+07 1.38316E+06 1.00267E+04-4.11436E+07-1.16489E+04-5.90115E+03
 -1       584 1.30353E+06 4.35739E+04-4.77990E+02-4.68665E+07-7.71517E+02 1.97448E+02
 -1       585 1.16303E+06-3.43892E+05 6.01460E+02-4.68569E+07-9.34690E+02 1.17121E+02
 -1       586 1.45234E+06-1.06655E+05-2.81835E+02-4.84271E+07 1.04007E+03-9.99733E+01
 -1       587 3.19809E+07 1.14192E+05 2.27077E+03-4.35825E+07-3.20067E+03-2.89114E+03
 -1       588 3.20742E+07 2.42483E+04-1.80734E+03-4.50768E+07-4.77900E+02-1.40722E+03
 -1       589 6.29442E+07 4.71841E+05 1.89613E+04-4.09807E+07 3.45071E+00-2.16996E+00
 -1       590 5.82595E+07 1.38315E+06 1.00304E+04-4.11436E+07 1.16555E+04 5.89832E+03
 -1       591 1.30355E+06 4.35638E+04-4.77914E+02-4.68665E+07 7.70863E+02-2.04878E+02
 -1       592 1.10644E+06-2.86467E+05 3.96555E+02-4.61122E+07-6.56326E-03-4.51864E+00
 -1       593 3.19809E+07 1.14189E+05 2.26927E+03-4.35825E+07 3.20159E+03 2.88704E+03
 -1       594 6.29859E+07 4.39582E+05 1.15023E+04-4.17315E+07 4.38109E+03-3.04840E+03
 -1       595 5.82828E+07 1.36974E+06-4.48580E+03-4.26492E+07 2.59239E+03-5.47535E+03
 -1       596 1.45233E+06-1.06650E+05-2.75573E+02-4.84271E+07-1.03951E+03 9.87290E+01
 -1       597 1.16302E+06-3.43899E+05 6.01412E+02-4.68569E+07 9.34208E+02-1.17126E+02
 -1       598 3.20742E+07 2.42472E+04-1.80509E+03-4.50768E+07 4.79558E+02 1.40661E+03
 -1       599 6.71950E+07 7.22783E+04-1.17269E+03-4.23952E+07-1.19507E+03 7.75019E+03
 -1       600 7.13893E+07-2.27442E+05 4.86625E+03-4.15411E+07-2.08118E+03 4.54687E+03
 -1       601 6.71165E+07 1.42643E+05 4.54266E+03-4.08832E+07-4.64831E+03-2.36896E+03
 -1       602 9.02582E+05-3.51325E+05-7.17176E+02-4.58915E+07-1.24467E+03 1.21334E+02
 -1       603 7.39544E+05-4.54775E+05 3.34205E+02-4.63981E+07-1.52188E+03 1.09014E+02
 -1       604 9.91004E+05-4.40352E+05-1.44490E+02-4.73838E+07 4.54109E+02 1.06948E+02
 -1       605 3.60180E+07-3.07234E+05-5.53330E+02-4.32384E+07-2.16215E+03-5.79203E+02
 -1       606 3.60932E+07-3.75523E+05-5.87668E+02-4.47326E+07-9.13619E+02 1.86960E+03
 -1       607 7.13471E+07-1.89848E+05 1.02129E+04-4.07843E+07 4.48985E-01-3.42558E-01
 -1       608 6.71165E+07 1.42643E+05 4.54140E+03-4.08832E+07 4.65122E+03 2.36664E+03
 -1       609 9.02574E+05-3.51329E+05-7.17913E+02-4.58915E+07 1.24447E+03-1.24972E+02
 -1       610 7.07812E+05-4.22598E+05 1.00733E+02-4.56539E+07-6.79057E-02-8.89565E-01
 -1       611 3.60180E+07-3.07236E+05-5.53793E+02-4.32384E+07 2.16329E+03 5.77490E+02
 -1       612 7.13893E+07-2.27443E+05 4.86644E+03-4.15411E+07 2.08248E+03-4.54753E+03
 -1       613 6.71950E+07 7.22765E+04-1.17146E+03-4.23952E+07 1.19541E+03-7.74923E+03
 -1       614 9.90999E+05-4.40359E+05-1.46513E+02-4.73837E+07-4.54296E+02-1.07245E+02
 -1       615 7.39542E+05-4.54775E+05 3.35177E+02-4.63981E+07 1.52182E+03-1.10624E+02
 -1       616 3.60932E+07-3.75526E+05-5.88025E+02-4.47326E+07 9.13132E+02-1.86957E+03
 -1       617 7.55597E+07-3.56453E+05-1.08901E+04-4.22586E+07-8.92551E+02 2.00894E+03
 -1       618 7.96807E+07-4.06777E+05-8.27236E+02-4.14527E+07-5.51729E+03 8.48197E+03
 -1       619 7.54594E+07-2.75383E+05-5.20111E+03-4.07349E+07-3.81407E+03-3.64407E+03
 -1       620 5.56460E+05-3.90796E+05-4.90386E+02-4.56414E+07-3.08239E+03 1.02194E+02
 -1       621 4.25204E+05-3.78989E+05 1.01092E+02-4.63982E+07-6.04363E+03 4.70990E+01
 -1       622 6.04578E+05-4.38782E+05 1.72828E+02-4.71541E+07-1.79757E+03-4.35304E+01
 -1       623 4.00046E+07-3.69555E+05-6.12531E+03-4.31551E+07-6.80814E+03-2.22295E+03
 -1       624 4.00923E+07-4.26601E+05-8.68620E+03-4.46951E+07-3.70261E+03-5.28029E+03
 -1       625 7.96126E+07-3.67517E+05-7.29539E+03-4.06856E+07 4.81337E-01-2.98658E-01
 -1       626 7.54594E+07-2.75383E+05-5.20076E+03-4.07349E+07 3.81528E+03 3.64337E+03
 -1       627 5.56460E+05-3.90795E+05-4.89982E+02-4.56414E+07 3.08230E+03-1.03852E+02
 -1       628 4.09037E+05-3.62638E+05-1.00749E+02-4.56279E+07-1.16832E-02-4.80562E-01
 -1       629 4.00046E+07-3.69555E+05-6.12505E+03-4.31551E+07 6.80846E+03 2.22218E+03
 -1       630 7.96807E+07-4.06778E+05-8.27378E+02-4.14527E+07 5.51761E+03-8.48225E+03
 -1       631 7.55597E+07-3.56455E+05-1.08904E+04-4.22586E+07 8.92745E+02-2.00930E+03
 -1       632 6.04576E+05-4.38784E+05 1.73341E+02-4.71541E+07 1.79761E+03 4.34807E+01
 -1       633 4.25204E+05-3.78991E+05 1.00717E+02-4.63982E+07 6.04362E+03-4.75907E+01
 -1       634 4.00923E+07-4.26603E+05-8.68617E+03-4.46951E+07 3.70279E+03 5.28018E+03
 -1       635 8.38927E+07-3.81805E+05 4.06913E+04-4.22118E+07 3.10093E+03 1.02773E+04
 -1       636 8.79856E+07-3.16734E+05-6.24520E+04-4.14309E+07 1.18409E+04-5.93989E+04
 -1       637 8.38021E+07-2.86620E+05-7.64243E+04-4.06599E+07 7.77472E+03-3.99094E+04
 -1       638 3.11067E+05-3.07422E+05-3.15925E+02-4.56082E+07 9.49938E+03 5.78578E+01
 -1       639 2.21673E+05-2.61427E+05 1.73681E+01-4.64225E+07 9.18213E+03 2.33290E+01
 -1       640 3.34756E+05-3.30738E+05 1.69632E+02-4.71937E+07 4.46656E+03-4.02080E+01
 -1       641 4.41006E+07-2.14216E+05-7.17486E+04-4.31902E+07 2.14996E+04-3.16154E+04
 -1       642 4.41784E+07-2.73181E+05 6.45817E+04-4.47854E+07 4.26899E+03 8.51508E+03
 -1       643 8.80406E+07-2.24119E+05-1.25656E+05-4.06552E+07 1.40427E-01-1.27252E-01
 -1       644 8.38021E+07-2.86621E+05-7.64244E+04-4.06599E+07-7.77415E+03 3.99090E+04
 -1       645 3.11066E+05-3.07423E+05-3.16063E+02-4.56082E+07-9.49938E+03-5.85753E+01
 -1       646 2.14338E+05-2.54087E+05-1.07016E+02-4.56109E+07 1.05333E-02-2.46357E-01
 -1       647 4.41006E+07-2.14216E+05-7.17487E+04-4.31902E+07-2.14994E+04 3.16150E+04
 -1       648 8.79856E+07-3.16735E+05-6.24520E+04-4.14309E+07-1.18407E+04 5.93988E+04
 -1       649 8.38927E+07-3.81807E+05 4.06914E+04-4.22118E+07-3.10093E+03-1.02772E+04
 -1       650 3.34756E+05-3.30740E+05 1.69540E+02-4.71937E+07-4.46655E+03 4.01303E+01
 -1       651 2.21673E+05-2.61428E+05 1.74712E+01-4.64225E+07-9.18212E+03-2.35762E+01
 -1       652 4.41784E+07-2.73182E+05 6.45817E+04-4.47854E+07-4.26900E+03-8.51510E+03
 -1       653 9.18885E+07 4.83252E+04-1.50882E+05-4.22079E+07 2.20249E+04-1.22045E+05
 -1       654 9.64040E+07 8.58248E+05-1.02945E+05-4.15351E+07 9.61976E+04-3.40335E+05
 -1       655 9.21838E+07 4.53927E+05-2.10296E+05-4.07275E+07 9.06217E+04-2.86736E+05
 -1       656 1.56900E+05-2.04432E+05-1.59196E+02-4.55322E+07 1.26958E+05 4.45618E+01
 -1       657 1.02203E+05-1.58351E+05-5.11001E+00-4.63242E+07 1.52082E+05 2.28113E+01
 -1       658 1.67127E+05-2.14209E+05 1.88390E+02-4.70881E+07 2.60852E+04-2.37734E+01
 -1       659 4.83327E+07 2.95053E+05-2.09187E+05-4.29405E+07 1.91056E+05-2.68609E+05
 -1       660 4.79887E+07-2.30098E+04-2.65708E+05-4.45475E+07 2.54535E+04-1.58079E+05
 -1       661 9.67615E+07 1.03630E+06-5.52924E+05-4.08883E+07 7.45191E-02-8.36457E-02
 -1       662 9.21838E+07 4.53927E+05-2.10296E+05-4.07275E+07-9.06214E+04 2.86736E+05
 -1       663 1.56900E+05-2.04432E+05-1.59157E+02-4.55322E+07-1.26958E+05-4.49368E+01
 -1       664 9.94591E+04-1.55657E+05-4.58768E+01-4.56363E+07-3.57541E-03-1.25404E-01
 -1       665 4.83327E+07 2.95052E+05-2.09187E+05-4.29405E+07-1.91056E+05 2.68609E+05
 -1       666 9.64040E+07 8.58248E+05-1.02945E+05-4.15351E+07-9.61975E+04 3.40335E+05
 -1       667 9.18885E+07 4.83243E+04-1.50882E+05-4.22079E+07-2.20249E+04 1.22045E+05
 -1       668 1.67127E+05-2.14211E+05 1.88407E+02-4.70881E+07-2.60853E+04 2.37525E+01
 -1       669 1.02203E+05-1.58351E+05-5.13390E+00-4.63242E+07-1.52082E+05-2.29566E+01
 -1       670 4.79887E+07-2.30105E+04-2.65708E+05-4.45475E+07-2.54535E+04 1.58079E+05
 -1       671 9.75981E+07 2.08562E+06 8.39577E+05-4.11775E+07 2.28193E+05-7.22069E+04
 -1       672 1.00909E+08 3.50279E+06-1.58734E+06-3.95658E+07 9.21655E+05-1.47402E+06
 -1       673 1.00177E+08 2.69684E+06-1.14270E+06-4.04480E+07 5.96065E+05-1.01102E+06
 -1       674 6.83477E+04-1.19373E+05-7.36896E+01-4.40315E+07 6.37804E+05 4.24388E+01
 -1       675 3.79320E+04-8.38847E+04 1.19754E+02-4.27374E+07 9.38319E+05 7.35702E+01
 -1       676 7.19858E+04-1.22503E+05-7.06641E+01-4.47161E+07 2.55853E+05-5.84895E+01
 -1       677 5.18493E+07 2.57245E+06-1.09064E+06-4.17985E+07 1.01856E+06-5.33078E+05
 -1       678 4.89593E+07 1.99424E+06 4.51813E+05-4.13705E+07 7.00142E+05-3.71941E+05
 -1       679 1.04433E+08 4.81605E+06-1.01189E+06-4.00483E+07-1.58651E-02 1.22803E-02
 -1       680 1.00177E+08 2.69684E+06-1.14270E+06-4.04480E+07-5.96065E+05 1.01102E+06
 -1       681 6.83477E+04-1.19373E+05-7.37007E+01-4.40315E+07-6.37804E+05-4.26557E+01
 -1       682 3.70452E+04-8.34624E+04-2.17638E+02-4.33004E+07 4.10927E-02-8.77252E-02
 -1       683 5.18493E+07 2.57245E+06-1.09064E+06-4.17985E+07-1.01856E+06 5.33078E+05
 -1       684 1.00909E+08 3.50279E+06-1.58734E+06-3.95658E+07-9.21655E+05 1.47402E+06
 -1       685 9.75981E+07 2.08562E+06 8.39577E+05-4.11775E+07-2.28193E+05 7.22069E+04
 -1       686 7.19858E+04-1.22504E+05-7.06620E+01-4.47161E+07-2.55852E+05 5.84699E+01
 -1       687 3.79321E+04-8.38850E+04 1.19758E+02-4.27374E+07-9.38319E+05-7.36608E+01
 -1       688 4.89593E+07 1.99424E+06 4.51813E+05-4.13705E+07-7.00142E+05 3.71941E+05
 -1       689 9.76558E+07 7.86151E+06-2.00234E+06-3.65060E+07 4.33300E+05-1.30756E+06
 -1       690 1.00597E+08 1.63045E+07-3.04352E+05-3.58000E+07 2.19001E+06-1.39828E+06
 -1       691 1.08078E+08 1.30935E+07 3.53780E+06-3.95594E+07 1.95511E+06-5.69481E+05
 -1       692 2.14227E+04-5.99646E+04-8.84039E+02-3.90348E+07 1.90737E+06-3.44412E+02
 -1       693 5.71820E+03-3.61621E+04-3.67533E+02-3.22971E+07 1.94559E+06-4.23830E+02
 -1       694 2.23689E+04-5.98532E+04 5.70112E+02-3.58757E+07 3.86009E+05 1.08753E+02
 -1       695 5.42894E+07 1.02951E+07 3.50694E+06-3.60588E+07 2.69529E+06 9.83879E+05
 -1       696 4.58217E+07 5.29298E+06-4.59558E+06-3.03233E+07 5.91391E+05-3.16882E+06
 -1       697 1.07819E+08 2.03134E+07 5.33179E+06-3.85781E+07-1.89046E-02-7.43892E-02
 -1       698 1.08078E+08 1.30935E+07 3.53780E+06-3.95594E+07-1.95511E+06 5.69480E+05
 -1       699 2.14227E+04-5.99647E+04-8.84030E+02-3.90348E+07-1.90737E+06 3.44251E+02
 -1       700 5.99059E+03-3.64929E+04-1.41776E+03-3.50666E+07-1.78694E-01-7.03440E-02
 -1       701 5.42894E+07 1.02951E+07 3.50694E+06-3.60588E+07-2.69529E+06-9.83880E+05
 -1       702 1.00597E+08 1.63045E+07-3.04352E+05-3.58000E+07-2.19001E+06 1.39828E+06
 -1       703 9.76558E+07 7.86151E+06-2.00234E+06-3.65060E+07-4.33300E+05 1.30756E+06
 -1       704 2.23690E+04-5.98536E+04 5.70102E+02-3.58757E+07-3.86010E+05-1.08762E+02
 -1       705 5.71828E+03-3.61623E+04-3.67531E+02-3.22971E+07-1.94559E+06 4.23748E+02
 -1       706 4.58217E+07 5.29298E+06-4.59558E+06-3.03233E+07-5.91391E+05 3.16882E+06
 -1       707 1.03896E+08 2.94639E+07 1.36026E+07-1.81796E+07 1.67231E+06 1.23066E+07
 -1       708 1.04296E+08 4.32063E+07 3.50787E+07-1.11717E+07 5.23858E+05 2.05668E+07
 -1       709 9.76190E+07 2.93618E+07 1.90167E+07-2.76797E+07 1.11983E+06 4.89813E+06
 -1       710-1.73671E+02-1.95535E+04-2.08311E+03-2.49508E+07 1.02157E+06-1.07014E+03
 -1       711-1.23345E+04-4.08744E+03-4.07513E+03-7.44511E+06 5.64988E+05-3.13945E+03
 -1       712-5.44981E+03-2.10000E+04-2.23747E+03-1.54658E+07 1.66488E+06-2.27182E+03
 -1       713 4.49703E+07 1.82674E+07 1.66910E+07-1.57023E+07-4.25263E+05 2.68896E+06
 -1       714 6.15425E+07 2.45934E+07 2.12551E+07-2.58716E+06 1.97993E+06 1.82051E+07
 -1       715 9.20264E+07 4.09232E+07 3.99355E+07-1.72580E+07-1.21994E-01-7.00961E-01
 -1       716 9.76190E+07 2.93618E+07 1.90167E+07-2.76797E+07-1.11983E+06-4.89813E+06
 -1       717-1.73654E+02-1.95535E+04-2.08311E+03-2.49508E+07-1.02157E+06 1.07001E+03
 -1       718-7.96874E+03-2.72803E+03-3.67573E+03-1.35796E+07 1.71696E-01-5.51117E-02
 -1       719 4.49703E+07 1.82674E+07 1.66910E+07-1.57023E+07 4.25263E+05-2.68896E+06
 -1       720 1.04296E+08 4.32063E+07 3.50787E+07-1.11717E+07-5.23858E+05-2.05668E+07
 -1       721 1.03896E+08 2.94639E+07 1.36026E+07-1.81796E+07-1.67231E+06-1.23066E+07
 -1       722-5.44960E+03-2.10001E+04-2.23743E+03-1.54658E+07-1.66488E+06 2.27177E+03
 -1       723-1.23344E+04-4.08739E+03-4.07508E+03-7.44511E+06-5.64988E+05 3.13935E+03
 -1       724 6.15425E+07 2.45934E+07 2.12551E+07-2.58716E+06-1.97993E+06-1.82051E+07
 -1       725 6.17875E+07 1.18508E+07 1.63753E+05-6.45705E+06-2.93860E+04-1.58271E+05
 -1       726 7.35126E+07 8.03400E+06 8.09467E+04-1.44649E+07-1.28629E+05-4.61083E+04
 -1       727 6.31984E+07 9.09071E+06 4.23467E+05-9.48660E+06-6.89933E+03-1.55006E+05
 -1       728 5.26162E+07 1.42091E+07 4.47022E+05-4.66556E+04 1.17260E+05-2.41406E+05
 -1       729 2.19226E+07 1.76531E+07 6.14996E+05-2.17555E+07 9.27542E+04-6.23624E+05
 -1       730 1.74070E+07 2.34557E+07-5.08555E+04-2.07362E+07 2.09319E+05-3.23034E+05
 -1       731 4.80992E+07 1.12383E+07 2.23479E+05-2.85068E+07-8.29140E+04-5.83712E+04
 -1       732 4.65849E+07 1.31077E+07-6.25506E+04-2.88004E+07-4.06387E+04 4.82651E+03
 -1       733 7.37190E+07 7.28199E+06 1.95090E+05-1.50365E+07-9.38864E+01-1.59977E+02
 -1       734 6.31977E+07 9.08747E+06 4.27453E+05-9.48681E+06 6.93695E+03 1.54804E+05
 -1       735 5.39620E+07 1.21942E+07 1.08403E+06-2.16416E+06 4.97815E+01 3.49572E+02
 -1       736 2.19159E+07 1.76471E+07 6.15794E+05-2.17609E+07-9.26278E+04 6.23869E+05
 -1       737 4.80994E+07 1.12371E+07 2.22033E+05-2.85065E+07 8.28802E+04 5.82418E+04
 -1       738 7.35128E+07 8.03545E+06 8.18577E+04-1.44650E+07 1.28836E+05 4.61563E+04
 -1       739 6.17871E+07 1.18503E+07 1.60646E+05-6.45689E+06 2.92827E+04 1.58223E+05
 -1       740 5.26114E+07 1.42019E+07 4.45766E+05-4.88251E+04-1.17587E+05 2.40981E+05
 -1       741 1.74080E+07 2.34555E+07-5.18521E+04-2.07363E+07-2.09355E+05 3.22338E+05
 -1       742 4.65839E+07 1.31077E+07-6.19347E+04-2.88007E+07 4.06380E+04-4.61082E+03
 -1       743 8.26391E+07 6.15810E+06-1.09367E+04-1.81914E+07-7.43842E+04-2.18364E+04
 -1       744 9.18174E+07 3.67943E+06 6.54232E+04-2.20721E+07-1.13587E+05-2.54970E+04
 -1       745 8.27024E+07 5.30188E+06 1.78377E+05-1.85281E+07-1.33431E+05-4.55398E+04
 -1       746 6.63616E+07 5.22566E+06 5.25028E+04-3.16376E+07-7.31649E+04-2.90037E+04
 -1       747 6.61328E+07 5.66215E+06-3.96684E+04-3.26444E+07-1.86738E+04-1.91830E+04
 -1       748 9.16795E+07 3.49800E+06 1.37797E+05-2.18031E+07 1.02704E+01 5.60449E+01
 -1       749 8.27025E+07 5.30271E+06 1.77548E+05-1.85280E+07 1.33474E+05 4.54589E+04
 -1       750 6.63617E+07 5.22583E+06 5.27650E+04-3.16377E+07 7.31810E+04 2.90377E+04
 -1       751 9.18173E+07 3.67921E+06 6.51849E+04-2.20721E+07 1.13602E+05 2.54617E+04
 -1       752 8.26387E+07 6.15834E+06-1.01950E+04-1.81915E+07 7.43950E+04 2.19285E+04
 -1       753 6.61329E+07 5.66216E+06-3.98351E+04-3.26443E+07 1.86850E+04 1.90910E+04
 -1       754 1.00376E+08 2.50755E+06 6.90579E+03-2.41594E+07-4.61367E+04 1.85076E+03
 -1       755 1.08685E+08 1.24285E+06 3.18650E+04-2.52877E+07-5.77828E+04-1.10900E+04
 -1       756 1.00084E+08 2.34382E+06 9.33556E+04-2.32165E+07-1.01277E+05-4.15055E+04
 -1       757 8.09531E+07 1.85479E+06 2.65501E+04-3.28868E+07-3.87719E+04-3.10326E+04
 -1       758 8.10503E+07 1.86438E+06-2.58010E+04-3.42181E+07-1.28446E+04-1.89919E+04
 -1       759 1.08528E+08 1.23234E+06 7.26775E+04-2.46635E+07 5.31649E+00-4.50049E+00
 -1       760 1.00084E+08 2.34369E+06 9.35097E+04-2.32165E+07 1.01297E+05 4.15335E+04
 -1       761 8.09531E+07 1.85476E+06 2.64990E+04-3.28867E+07 3.87828E+04 3.10254E+04
 -1       762 1.08685E+08 1.24289E+06 3.18970E+04-2.52876E+07 5.77877E+04 1.10996E+04
 -1       763 1.00376E+08 2.50754E+06 6.75105E+03-2.41594E+07 4.61317E+04-1.88945E+03
 -1       764 8.10503E+07 1.86440E+06-2.57583E+04-3.42181E+07 1.28361E+04 1.90060E+04
 -1       765 1.17017E+08 7.34037E+05-3.12501E+03-2.64917E+07-2.07778E+04 1.29008E+04
 -1       766 1.25154E+08 2.52882E+05 1.44064E+04-2.62787E+07-2.04832E+04 5.08044E+03
 -1       767 1.16790E+08 7.59027E+05 4.81399E+04-2.50632E+07-4.77590E+04-2.75530E+04
 -1       768 9.39655E+07 3.92180E+05 1.45418E+04-3.32311E+07-1.48945E+04-2.46913E+04
 -1       769 9.40754E+07 3.23957E+05-9.45066E+03-3.46765E+07-4.40573E+03-1.93878E+04
 -1       770 1.25068E+08 2.76556E+05 3.61761E+04-2.55403E+07 1.66368E+00 2.52053E+00
 -1       771 1.16790E+08 7.59046E+05 4.81090E+04-2.50632E+07 4.77652E+04 2.75517E+04
 -1       772 9.39655E+07 3.92182E+05 1.45496E+04-3.32311E+07 1.48978E+04 2.46927E+04
 -1       773 1.25154E+08 2.52879E+05 1.44032E+04-2.62787E+07 2.04859E+04-5.07963E+03
 -1       774 1.17017E+08 7.34045E+05-3.09093E+03-2.64917E+07 2.07784E+04-1.28885E+04
 -1       775 9.40754E+07 3.23951E+05-9.46108E+03-3.46765E+07 4.40956E+03 1.93858E+04
 -1       776 1.33439E+08 5.75699E+04 1.78194E+03-2.71042E+07-6.22794E+03 2.47938E+04
 -1       777 1.41610E+08-9.95795E+04 2.47607E+03-2.63801E+07-4.73454E+03 1.57859E+04
 -1       778 1.33318E+08 1.06942E+05 2.05799E+04-2.55508E+07-1.59853E+04-1.07865E+04
 -1       779 1.06460E+08-1.39318E+05 5.26308E+03-3.32065E+07-3.98204E+03-1.33707E+04
 -1       780 1.06549E+08-2.01932E+05 1.72932E+02-3.46694E+07-7.65619E+02-7.52492E+03
 -1       781 1.41568E+08-7.24374E+04 1.71363E+04-2.56265E+07 7.44870E-01 4.64672E-01
 -1       782 1.33318E+08 1.06940E+05 2.05856E+04-2.55508E+07 1.59881E+04 1.07898E+04
 -1       783 1.06460E+08-1.39318E+05 5.26179E+03-3.32065E+07 3.98404E+03 1.33705E+04
 -1       784 1.41610E+08-9.95802E+04 2.47592E+03-2.63801E+07 4.73526E+03-1.57854E+04
 -1       785 1.33439E+08 5.75681E+04 1.77381E+03-2.71042E+07 6.22820E+03-2.47968E+04
 -1       786 1.06549E+08-2.01933E+05 1.75391E+02-3.46694E+07 7.64709E+02 7.52517E+03
 -1       787 1.49917E+08-1.77271E+05-1.53515E+04-2.70551E+07-1.37458E+03 1.18144E+04
 -1       788 1.58133E+08-2.13457E+05-7.21237E+03-2.61731E+07 1.38615E+02 3.02269E+04
 -1       789 1.49822E+08-1.24706E+05-3.44409E+02-2.55116E+07-3.27689E+03-1.45682E+03
 -1       790 1.18849E+08-2.97009E+05-7.89196E+03-3.30731E+07-5.73255E+03-1.17861E+04
 -1       791 1.18996E+08-3.63234E+05-1.57502E+04-3.45376E+07-5.22111E+03-3.52947E+04
 -1       792 1.58057E+08-1.91642E+05-1.97802E+04-2.54337E+07 4.15909E-01 1.97129E-01
 -1       793 1.49822E+08-1.24707E+05-3.45542E+02-2.55116E+07 3.27804E+03 1.45723E+03
 -1       794 1.18849E+08-2.97009E+05-7.89173E+03-3.30731E+07 5.73323E+03 1.17861E+04
 -1       795 1.58133E+08-2.13457E+05-7.21226E+03-2.61731E+07-1.38208E+02-3.02267E+04
 -1       796 1.49917E+08-1.77271E+05-1.53495E+04-2.70551E+07 1.37463E+03-1.18136E+04
 -1       797 1.18996E+08-3.63235E+05-1.57508E+04-3.45376E+07 5.22147E+03 3.52947E+04
 -1       798 1.66517E+08-2.50261E+05 7.69105E+04-2.68220E+07 1.70071E+03 5.19280E+04
 -1       799 1.74764E+08-2.90438E+05-8.88946E+04-2.59417E+07-1.96507E+04-6.82084E+04
 -1       800 1.66434E+08-1.96553E+05-1.23752E+05-2.53260E+07-8.76638E+03-5.01143E+04
 -1       801 1.31444E+08-2.22516E+05-1.97379E+05-3.29847E+07 4.40103E+03-8.34444E+04
 -1       802 1.31604E+08-2.77168E+05 1.65995E+05-3.44305E+07 3.81422E+03 3.48292E+04
 -1       803 1.74882E+08-1.95510E+05-1.74740E+05-2.52232E+07 1.53151E-01 1.05278E-01
 -1       804 1.66434E+08-1.96554E+05-1.23752E+05-2.53260E+07 8.76694E+03 5.01147E+04
 -1       805 1.31444E+08-2.22517E+05-1.97379E+05-3.29847E+07-4.40067E+03 8.34444E+04
 -1       806 1.74764E+08-2.90438E+05-8.88947E+04-2.59417E+07 1.96509E+04 6.82085E+04
 -1       807 1.66517E+08-2.50262E+05 7.69100E+04-2.68220E+07-1.70068E+03-5.19282E+04
 -1       808 1.31604E+08-2.77168E+05 1.65995E+05-3.44305E+07-3.81427E+03-3.48292E+04
 -1       809 1.82835E+08-1.56737E+05-3.13675E+05-2.66453E+07-3.16217E+04-2.55026E+05
 -1       810 1.91546E+08 3.33844E+05-2.92559E+05-2.59025E+07-1.36345E+04-4.79022E+05
 -1       811 1.83437E+08 2.16021E+05-3.11394E+05-2.52780E+07 1.41543E+04-4.28305E+05
 -1       812 1.44069E+08 4.14782E+05-6.01017E+05-3.30834E+07 8.85167E+04-7.24141E+05
 -1       813 1.43213E+08-2.00246E+05-7.61388E+05-3.45543E+07-2.98655E+04-5.06194E+05
 -1       814 1.92136E+08 4.07183E+05-1.09616E+06-2.52228E+07 9.11448E-02 4.62484E-02
 -1       815 1.83437E+08 2.16021E+05-3.11394E+05-2.52780E+07-1.41541E+04 4.28305E+05
 -1       816 1.44069E+08 4.14782E+05-6.01017E+05-3.30834E+07-8.85166E+04 7.24141E+05
 -1       817 1.91546E+08 3.33844E+05-2.92558E+05-2.59025E+07 1.36346E+04 4.79022E+05
 -1       818 1.82835E+08-1.56738E+05-3.13675E+05-2.66453E+07 3.16218E+04 2.55026E+05
 -1       819 1.43213E+08-2.00246E+05-7.61388E+05-3.45543E+07 2.98655E+04 5.06194E+05
 -1       820 1.97797E+08 5.10143E+05 1.74181E+06-2.72822E+07 1.36265E+05 6.12894E+04
 -1       821 2.08680E+08-3.16924E+05-2.18852E+06-2.88913E+07 2.13780E+05-2.77070E+06
 -1       822 2.02454E+08 8.53759E+05-1.60226E+06-2.64440E+07 4.12642E+04-1.78223E+06
 -1       823 1.59419E+08 5.52695E+06-2.03743E+06-3.52375E+07 6.49269E+05-1.55927E+06
 -1       824 1.51195E+08 3.77732E+06 1.87368E+06-3.48883E+07 6.64538E+05-1.14506E+06
 -1       825 2.15135E+08 1.41964E+06-7.77267E+05-2.89916E+07 3.77021E-02 1.48820E-01
 -1       826 2.02454E+08 8.53758E+05-1.60226E+06-2.64440E+07-4.12641E+04 1.78223E+06
 -1       827 1.59419E+08 5.52695E+06-2.03743E+06-3.52375E+07-6.49269E+05 1.55927E+06
 -1       828 2.08680E+08-3.16924E+05-2.18852E+06-2.88913E+07-2.13780E+05 2.77070E+06
 -1       829 1.97797E+08 5.10143E+05 1.74181E+06-2.72822E+07-1.36265E+05-6.12896E+04
 -1       830 1.51195E+08 3.77732E+06 1.87368E+06-3.48883E+07-6.64538E+05 1.14506E+06
 -1       831 2.02985E+08 7.77741E+06-4.77613E+06-3.07779E+07-2.47124E+05-3.07938E+06
 -1       832 2.21844E+08 2.27449E+07 2.28650E+06-4.17761E+07 1.26854E+06-2.91264E+06
 -1       833 2.24063E+08 1.70664E+07 8.15896E+06-3.38514E+07 8.91317E+05-1.20005E+06
 -1       834 1.72699E+08 2.29264E+07 1.11303E+07-3.88579E+07 2.42074E+06 2.79658E+06
 -1       835 1.45334E+08 7.25336E+06-1.51359E+07-3.36336E+07 7.84075E+05-9.18576E+06
 -1       836 2.38051E+08 3.05895E+07 1.56273E+07-4.48119E+07-1.12828E-01-2.79420E-02
 -1       837 2.24063E+08 1.70664E+07 8.15896E+06-3.38514E+07-8.91317E+05 1.20005E+06
 -1       838 1.72699E+08 2.29264E+07 1.11303E+07-3.88579E+07-2.42074E+06-2.79658E+06
 -1       839 2.21844E+08 2.27449E+07 2.28650E+06-4.17761E+07-1.26854E+06 2.91264E+06
 -1       840 2.02985E+08 7.77741E+06-4.77613E+06-3.07779E+07 2.47124E+05 3.07938E+06
 -1       841 1.45334E+08 7.25336E+06-1.51359E+07-3.36336E+07-7.84075E+05 9.18576E+06
 -1       842 2.19543E+08 4.53505E+07 2.66053E+07-2.75577E+07 2.07753E+06 2.45547E+07
 -1       843 1.99686E+08 6.98468E+07 6.34255E+07-1.56635E+07 9.14741E+05 4.00816E+07
 -1       844 2.07256E+08 4.48087E+07 3.81241E+07-3.69630E+07 5.85762E+05 9.37137E+06
 -1       845 1.34258E+08 5.85225E+07 5.11499E+07-2.14117E+07-4.10212E+05 8.10394E+06
 -1       846 1.85914E+08 7.87548E+07 6.60972E+07-7.85059E+06 1.68635E+06 5.39130E+07
 -1       847 1.72514E+08 6.40657E+07 7.07931E+07-2.20135E+07 4.59255E-01-1.26590E+00
 -1       848 2.07256E+08 4.48087E+07 3.81241E+07-3.69630E+07-5.85763E+05-9.37137E+06
 -1       849 1.34258E+08 5.85225E+07 5.11499E+07-2.14117E+07 4.10212E+05-8.10394E+06
 -1       850 1.99686E+08 6.98468E+07 6.34255E+07-1.56635E+07-9.14742E+05-4.00816E+07
 -1       851 2.19543E+08 4.53505E+07 2.66054E+07-2.75577E+07-2.07753E+06-2.45547E+07
 -1       852 1.85914E+08 7.87548E+07 6.60972E+07-7.85059E+06-1.68635E+06-5.39130E+07
 -1       853 1.29088E+08-1.79266E+06-2.24030E+04 3.09170E+06 4.96646E+04 7.24541E+05
 -1       854 1.26771E+08-6.70353E+05-6.16156E+05 1.38490E+06-1.01535E+05 5.85587E+05
 -1       855 1.27967E+08-1.49362E+06-1.82934E+06 1.89184E+06 2.78131E+04 1.67774E+06
 -1       856 1.30312E+08-1.76248E+06-9.63494E+05 4.15715E+06-1.69958E+04 2.37922E+06
 -1       857 9.35895E+07 4.61996E+06-5.54478E+05 1.01374E+06 9.70778E+04 1.13608E+06
 -1       858 9.23702E+07 6.12986E+06 1.16790E+04 4.87051E+06 4.32586E+04 5.80037E+05
 -1       859 1.00781E+08 2.90423E+06-6.09434E+05-6.90357E+06-1.07717E+05 3.48786E+05
 -1       860 1.01554E+08 3.40852E+06 5.64488E+04-5.87324E+06-1.40164E+05 1.13510E+05
 -1       861 1.26382E+08-6.56136E+05-1.76907E+06 1.15026E+06-2.10414E+02 3.01439E+02
 -1       862 1.27968E+08-1.49061E+06-1.82960E+06 1.89150E+06-2.75535E+04-1.67730E+06
 -1       863 1.30697E+08-1.62343E+06-2.17100E+06 3.54945E+06-2.28322E+02-5.06571E+01
 -1       864 9.35874E+07 4.61819E+06-5.51945E+05 1.01418E+06-9.76269E+04-1.13580E+06
 -1       865 1.00781E+08 2.90330E+06-6.10697E+05-6.90433E+06 1.07821E+05-3.48788E+05
 -1       866 1.26772E+08-6.71770E+05-6.16726E+05 1.38518E+06 1.01663E+05-5.85654E+05
 -1       867 1.29089E+08-1.79257E+06-2.18545E+04 3.09180E+06-4.96807E+04-7.24668E+05
 -1       868 1.30312E+08-1.76078E+06-9.64139E+05 4.15535E+06 1.72012E+04-2.37884E+06
 -1       869 9.23706E+07 6.12893E+06 9.74326E+03 4.86982E+06-4.27176E+04-5.80251E+05
 -1       870 1.01554E+08 3.40883E+06 5.74229E+04-5.87273E+06 1.40115E+05-1.13446E+05
 -1       871 1.34598E+08-6.47427E+05 1.17460E+04 6.35022E+05-5.26480E+04 9.33579E+04
 -1       872 1.40613E+08-4.54583E+05-3.57250E+05-3.03735E+05-4.50667E+04-1.99448E+05
 -1       873 1.33177E+08-5.16828E+05-1.14436E+06 4.15286E+05-4.88272E+04 2.62641E+05
 -1       874 1.16258E+08 1.32089E+06-2.97205E+05-1.09710E+07-9.96945E+04-1.07848E+05
 -1       875 1.17171E+08 1.43909E+06 6.33928E+04-1.13271E+07-5.89677E+04-6.33534E+04
 -1       876 1.40118E+08-4.55607E+05-9.04138E+05-3.00044E+05 5.13689E+01-4.29739E+01
 -1       877 1.33177E+08-5.17690E+05-1.14440E+06 4.15434E+05 4.88250E+04-2.62511E+05
 -1       878 1.16258E+08 1.32117E+06-2.96961E+05-1.09709E+07 9.97091E+04 1.07896E+05
 -1       879 1.40614E+08-4.54207E+05-3.57103E+05-3.03706E+05 4.50640E+04 1.99506E+05
 -1       880 1.34599E+08-6.47387E+05 1.16163E+04 6.35130E+05 5.26132E+04-9.34169E+04
 -1       881 1.17172E+08 1.43911E+06 6.31765E+04-1.13271E+07 5.89899E+04 6.33122E+04
 -1       882 1.52107E+08-3.09565E+05 2.15478E+04-6.54890E+05-1.36709E+04-2.17546E+05
 -1       883 1.62264E+08-1.85504E+05-1.25266E+05-7.68836E+05-2.33739E+04-4.69408E+05
 -1       884 1.51121E+08-2.65795E+05-4.92748E+05-4.42474E+05-3.39555E+04-3.48647E+05
 -1       885 1.35391E+08 4.60945E+05-7.38656E+04-1.26316E+07-5.35508E+04-2.61763E+05
 -1       886 1.35935E+08 4.53132E+05 2.63349E+04-1.35338E+07-3.09930E+04-1.03324E+05
 -1       887 1.61956E+08-1.90207E+05-3.02829E+05-6.71216E+05-6.29392E+00 1.40405E+01
 -1       888 1.51121E+08-2.65601E+05-4.92713E+05-4.42496E+05 3.39625E+04 3.48661E+05
 -1       889 1.35391E+08 4.60895E+05-7.39161E+04-1.26317E+07 5.35533E+04 2.61765E+05
 -1       890 1.62264E+08-1.85579E+05-1.25292E+05-7.68836E+05 2.33729E+04 4.69405E+05
 -1       891 1.52107E+08-3.09592E+05 2.15533E+04-6.54889E+05 1.36747E+04 2.17553E+05
 -1       892 1.35935E+08 4.53132E+05 2.63799E+04-1.35338E+07 3.09966E+04 1.03336E+05
 -1       893 1.74787E+08-9.18156E+04 6.90180E+03-1.03441E+06-7.58702E+03-2.83767E+05
 -1       894 1.86649E+08-4.83818E+04-2.57635E+04-9.09218E+05-7.29742E+03-4.96238E+05
 -1       895 1.74323E+08-7.76456E+04-1.30079E+05-6.77845E+05-1.70070E+04-5.32659E+05
 -1       896 1.55836E+08 1.03867E+05 5.85395E+03-1.31137E+07-1.97135E+04-2.72160E+05
 -1       897 1.56059E+08 8.04150E+04 9.10528E+03-1.41642E+07-9.69304E+03-1.05967E+05
 -1       898 1.86513E+08-5.07319E+04-4.61249E+04-7.83338E+05 3.33570E-01 2.32104E-01
 -1       899 1.74323E+08-7.76906E+04-1.30095E+05-6.77838E+05 1.70069E+04 5.32668E+05
 -1       900 1.55836E+08 1.03875E+05 5.86407E+03-1.31137E+07 1.97160E+04 2.72164E+05
 -1       901 1.86649E+08-4.83659E+04-2.57579E+04-9.09222E+05 7.29768E+03 4.96242E+05
 -1       902 1.74787E+08-9.18036E+04 6.90411E+03-1.03441E+06 7.58568E+03 2.83765E+05
 -1       903 1.56059E+08 8.04135E+04 9.09506E+03-1.41642E+07 9.69119E+03 1.05965E+05
 -1       904 1.99234E+08-3.94876E+03 5.42223E+03-1.11506E+06 1.23383E+03-2.78224E+05
 -1       905 2.11587E+08 1.87588E+04 1.48298E+04-9.05044E+05 4.75933E+02-4.64180E+05
 -1       906 1.99069E+08-3.23095E+03 4.23248E+03-7.39103E+05-5.53056E+03-5.36490E+05
 -1       907 1.76548E+08-3.25927E+04 2.17776E+04-1.31475E+07-5.18121E+03-2.42337E+05
 -1       908 1.76630E+08-4.82418E+04 3.76991E+03-1.42028E+07 1.75669E+03-8.34109E+04
 -1       909 2.11540E+08 1.93759E+04 4.62365E+04-7.78115E+05 2.50238E-01 1.50939E+00
 -1       910 1.99069E+08-3.21962E+03 4.23853E+03-7.39106E+05 5.53051E+03 5.36493E+05
 -1       911 1.76548E+08-3.25942E+04 2.17758E+04-1.31475E+07 5.18180E+03 2.42338E+05
 -1       912 2.11587E+08 1.87542E+04 1.48284E+04-9.05042E+05-4.76183E+02 4.64181E+05
 -1       913 1.99234E+08-3.95165E+03 5.42118E+03-1.11506E+06-1.23329E+03 2.78225E+05
 -1       914 1.76630E+08-4.82414E+04 3.77250E+03-1.42028E+07-1.75602E+03 8.34115E+04
 -1       915 2.24006E+08-7.47878E+03-1.84206E+04-1.07451E+06-7.62916E+03-2.65440E+05
 -1       916 2.36331E+08-5.37444E+04-1.94335E+04-8.42050E+05-1.24643E+03-4.14594E+05
 -1       917 2.23930E+08-1.22844E+04 2.83277E+04-7.07353E+05-4.31499E+02-5.02397E+05
 -1       918 1.97166E+08-6.85158E+04 2.31677E+04-1.30317E+07 1.51178E+03-2.16292E+05
 -1       919 1.97283E+08-1.01868E+05-2.48225E+04-1.40440E+07-6.66420E+03-1.12740E+05
 -1       920 2.36257E+08-5.20901E+04 1.80918E+04-7.15367E+05-3.57803E-02 5.44686E-01
 -1       921 2.23930E+08-1.22876E+04 2.83260E+04-7.07352E+05 4.31706E+02 5.02399E+05
 -1       922 1.97166E+08-6.85156E+04 2.31680E+04-1.30317E+07-1.51132E+03 2.16293E+05
 -1       923 2.36331E+08-5.37427E+04-1.94329E+04-8.42051E+05 1.24648E+03 4.14594E+05
 -1       924 2.24006E+08-7.47780E+03-1.84202E+04-1.07451E+06 7.62884E+03 2.65440E+05
 -1       925 1.97283E+08-1.01868E+05-2.48232E+04-1.40440E+07 6.66398E+03 1.12740E+05
 -1       926 2.48441E+08 1.39086E+05 1.13629E+05-9.98320E+05 2.91434E+04-2.27575E+05
 -1       927 2.60523E+08 3.11068E+05 2.15509E+04-8.20156E+05 1.86478E+04-4.73612E+05
 -1       928 2.48469E+08 1.47186E+05-6.82114E+04-6.95766E+05-2.64017E+03-5.05957E+05
 -1       929 2.17547E+08-1.25104E+05-2.93824E+05-1.28365E+07-2.07371E+04-2.60666E+05
 -1       930 2.17715E+08-3.13301E+04 2.24658E+05-1.38051E+07 3.50272E+04-4.85670E+03
 -1       931 2.60739E+08 3.93136E+05-4.92624E+04-7.25571E+05 3.10104E-02 4.45982E-01
 -1       932 2.48469E+08 1.47187E+05-6.82108E+04-6.95767E+05 2.64012E+03 5.05958E+05
 -1       933 2.17547E+08-1.25104E+05-2.93824E+05-1.28365E+07 2.07372E+04 2.60667E+05
 -1       934 2.60523E+08 3.11068E+05 2.15507E+04-8.20156E+05-1.86478E+04 4.73613E+05
 -1       935 2.48441E+08 1.39086E+05 1.13629E+05-9.98320E+05-2.91433E+04 2.27575E+05
 -1       936 2.17715E+08-3.13302E+04 2.24658E+05-1.38051E+07-3.50271E+04 4.85674E+03
 -1       937 2.72042E+08-5.57598E+05-4.64199E+05-8.72646E+05-1.06274E+05-4.11716E+05
 -1       938 2.83800E+08-1.71404E+06-1.32443E+06-3.32147E+05-1.83174E+04-1.08147E+06
 -1       939 2.72616E+08-5.96163E+05-6.63327E+05-4.14007E+05-2.80564E+04-9.90135E+05
 -1       940 2.38643E+08 1.75695E+05-6.39630E+05-1.28446E+07-2.59106E+03-1.10735E+06
 -1       941 2.37395E+08-5.49265E+05-1.06690E+06-1.37158E+07-8.37684E+04-8.34610E+05
 -1       942 2.84343E+08-1.89576E+06-2.23133E+06-1.76262E+05 1.18707E-02 2.28613E-01
 -1       943 2.72616E+08-5.96163E+05-6.63327E+05-4.14006E+05 2.80564E+04 9.90136E+05
 -1       944 2.38643E+08 1.75695E+05-6.39629E+05-1.28446E+07 2.59115E+03 1.10735E+06
 -1       945 2.83800E+08-1.71404E+06-1.32443E+06-3.32147E+05 1.83174E+04 1.08147E+06
 -1       946 2.72042E+08-5.57598E+05-4.64198E+05-8.72646E+05 1.06274E+05 4.11716E+05
 -1       947 2.37395E+08-5.49265E+05-1.06690E+06-1.37158E+07 8.37683E+04 8.34610E+05
 -1       948 2.92370E+08 2.71693E+06 3.10071E+06-1.13955E+06 2.15259E+05-2.80035E+05
 -1       949 3.04266E+08 3.30507E+06-2.09469E+06 4.20427E+04-2.31846E+05-3.26892E+06
 -1       950 2.98251E+08 2.60840E+06-1.74563E+06-1.20724E+06-1.36880E+05-2.32410E+06
 -1       951 2.62274E+08-9.90649E+05-4.81432E+06-1.31444E+07-3.42591E+05-1.61860E+06
 -1       952 2.51350E+08-8.18010E+05 1.94546E+06-1.36546E+07 3.75167E+05-1.74147E+06
 -1       953 3.11646E+08 4.98528E+06-6.41185E+05 5.60845E+04-1.27602E-01 4.49041E-01
 -1       954 2.98251E+08 2.60840E+06-1.74562E+06-1.20724E+06 1.36880E+05 2.32411E+06
 -1       955 2.62274E+08-9.90650E+05-4.81432E+06-1.31444E+07 3.42591E+05 1.61860E+06
 -1       956 3.04266E+08 3.30507E+06-2.09469E+06 4.20426E+04 2.31847E+05 3.26892E+06
 -1       957 2.92370E+08 2.71693E+06 3.10071E+06-1.13955E+06-2.15259E+05 2.80034E+05
 -1       958 2.51350E+08-8.18009E+05 1.94546E+06-1.36546E+07-3.75167E+05 1.74147E+06
 -1       959 3.08565E+08-1.06223E+07-9.07861E+06-1.03192E+06-1.59570E+06-2.04432E+06
 -1       960 3.30604E+08-3.42820E+07-1.47951E+07 1.21421E+07-1.01946E+06-6.49479E+06
 -1       961 3.27481E+08-1.01924E+07 3.06862E+06 1.38996E+06-4.21764E+05-1.52549E+06
 -1       962 2.96513E+08 5.04021E+06 1.35180E+07-1.99774E+07 6.19352E+05 3.84678E+06
 -1       963 2.56160E+08-1.10281E+07-2.74496E+07-1.63925E+07-1.05143E+06-1.74234E+07
 -1       964 3.46767E+08-3.45489E+07-2.33218E+06 1.21889E+07 1.46467E-01 5.76773E-01
 -1       965 3.27481E+08-1.01924E+07 3.06862E+06 1.38996E+06 4.21764E+05 1.52549E+06
 -1       966 2.96513E+08 5.04021E+06 1.35180E+07-1.99774E+07-6.19353E+05-3.84678E+06
 -1       967 3.30604E+08-3.42820E+07-1.47951E+07 1.21421E+07 1.01946E+06 6.49479E+06
 -1       968 3.08565E+08-1.06223E+07-9.07861E+06-1.03192E+06 1.59570E+06 2.04432E+06
 -1       969 2.56160E+08-1.10281E+07-2.74496E+07-1.63925E+07 1.05142E+06 1.74234E+07
 -1       970 4.01925E+08 6.13246E+07 5.52708E+07-3.54515E+07 2.35327E+06 3.73833E+07
 -1       971 4.61817E+08 1.63633E+08 1.54291E+08-1.06184E+08 1.90339E+06 6.71328E+07
 -1       972 3.89354E+08 5.63025E+07 7.61477E+07-4.46820E+07-2.55788E+05 1.43208E+07
 -1       973 2.89078E+08 9.68810E+07 1.03037E+08-6.63794E+07-3.89684E+05 1.32940E+07
 -1       974 3.66411E+08 1.24878E+08 1.21997E+08-5.26666E+07 4.13686E+06 9.57453E+07
 -1       975 4.35021E+08 1.63616E+08 1.79545E+08-1.13459E+08-1.41581E+00-3.03851E+00
 -1       976 3.89354E+08 5.63025E+07 7.61477E+07-4.46820E+07 2.55788E+05-1.43208E+07
 -1       977 2.89078E+08 9.68810E+07 1.03037E+08-6.63794E+07 3.89684E+05-1.32940E+07
 -1       978 4.61817E+08 1.63633E+08 1.54290E+08-1.06184E+08-1.90338E+06-6.71328E+07
 -1       979 4.01925E+08 6.13246E+07 5.52708E+07-3.54515E+07-2.35326E+06-3.73833E+07
 -1       980 3.66411E+08 1.24878E+08 1.21997E+08-5.26666E+07-4.13685E+06-9.57453E+07
 -1       981 9.42280E+06-4.96887E+06-2.86225E+04-5.48142E+07-1.98110E+04 7.48441E+05
 -1       982-8.68148E+06-2.17294E+06-4.17848E+05-4.93976E+07-5.52921E+04 5.21117E+05
 -1       983-2.03339E+07-6.39851E+06-1.46100E+04-4.66909E+07-1.41985E+04 7.65866E+04
 -1       984-4.44252E+06-7.68642E+06-2.81679E+04-5.13815E+07-1.47844E+04 1.41558E+05
 -1       985 1.76543E+06 7.28908E+06-5.29963E+05-6.36689E+07-4.73042E+05 4.90065E+05
 -1       986 4.96905E+06 2.48862E+06-2.52541E+05-6.94086E+07-1.96463E+05 3.88788E+04
 -1       987-9.79590E+06 2.54889E+05-7.26160E+04-5.30752E+07-6.19990E+04 7.37182E+04
 -1       988-8.09462E+06-1.49512E+06 2.92696E+04-5.59278E+07 1.44198E+04 5.44251E+04
 -1       989 7.03853E+06-9.78614E+05-6.48511E+05-5.36085E+07 6.67181E+02-3.76581E+02
 -1       990-8.68306E+06-2.17069E+06-4.18691E+05-4.93972E+07 5.55904E+04-5.21114E+05
 -1       991-2.15955E+07-4.89528E+06-1.54363E+05-4.58741E+07-3.53092E+02 1.71735E+02
 -1       992 1.77194E+06 7.28824E+06-5.29544E+05-6.36723E+07 4.72762E+05-4.89955E+05
 -1       993-9.79552E+06 2.56285E+05-7.17643E+04-5.30756E+07 6.20560E+04-7.37325E+04
 -1       994 9.42807E+06-4.96965E+06-2.74427E+04-5.48140E+07 1.90398E+04-7.48017E+05
 -1       995-4.44242E+06-7.68710E+06-2.78419E+04-5.13810E+07 1.44853E+04-1.41611E+05
 -1       996-2.03338E+07-6.39870E+06-1.47276E+04-4.66918E+07 1.46409E+04-7.68020E+04
 -1       997 4.96872E+06 2.48806E+06-2.52788E+05-6.94090E+07 1.97047E+05-3.88234E+04
 -1       998-8.09430E+06-1.49511E+06 2.93128E+04-5.59276E+07-1.44410E+04-5.44639E+04
 -1       999-3.04284E+07-3.95797E+06-8.20147E+04-4.39121E+07-3.44494E+04 7.80525E+04
 -1      1000-3.87532E+07-4.00222E+06-4.52287E+04-4.26279E+07-1.45068E+04 4.28298E+03
 -1      1001-2.85645E+07-6.01468E+06 7.27279E+03-4.53705E+07-1.41791E+04 2.14781E+04
 -1      1002-1.85508E+07-7.82475E+05-1.86821E+04-4.69224E+07-1.20260E+04 3.15963E+03
 -1      1003-1.78461E+07-1.47073E+06 1.03078E+04-4.86816E+07 3.17052E+02 7.17568E+03
 -1      1004-3.04283E+07-3.95806E+06-8.19341E+04-4.39124E+07 3.44289E+04-7.80664E+04
 -1      1005-3.92548E+07-3.44664E+06-6.37860E+04-4.19738E+07 9.57446E+00-2.40607E+01
 -1      1006-1.85510E+07-7.82650E+05-1.88063E+04-4.69224E+07 1.20123E+04-3.19277E+03
 -1      1007-2.85645E+07-6.01463E+06 7.22372E+03-4.53706E+07 1.42745E+04-2.14925E+04
 -1      1008-3.87533E+07-4.00221E+06-4.52208E+04-4.26277E+07 1.44798E+04-4.27181E+03
 -1      1009-1.78462E+07-1.47073E+06 1.03293E+04-4.86816E+07-2.91523E+02-7.14510E+03
 -1      1010-4.53467E+07-2.60493E+06-2.37403E+04-4.12175E+07-1.80022E+04 1.21447E+04
 -1      1011-5.14230E+07-2.08620E+06-1.90490E+04-4.10936E+07-8.35660E+03-1.84636E+03
 -1      1012-4.46400E+07-3.34208E+06 4.71735E+03-4.25199E+07-5.73685E+03-2.84600E+03
 -1      1013-2.49226E+07-8.20032E+05-4.01215E+03-4.41236E+07-6.09033E+03 1.50506E+03
 -1      1014-2.46400E+07-1.10933E+06 2.73579E+02-4.55858E+07-9.29530E+02 1.34596E+03
 -1      1015-4.53468E+07-2.60493E+06-2.37684E+04-4.12174E+07 1.80022E+04-1.21542E+04
 -1      1016-5.15999E+07-1.89064E+06-3.11487E+04-4.04490E+07-5.53003E+00-6.07909E-01
 -1      1017-2.49226E+07-8.20007E+05-3.99389E+03-4.41236E+07 6.08446E+03-1.51199E+03
 -1      1018-4.46400E+07-3.34208E+06 4.73066E+03-4.25199E+07 5.70808E+03 2.85201E+03
 -1      1019-5.14230E+07-2.08620E+06-1.90449E+04-4.10937E+07 8.35431E+03 1.84373E+03
 -1      1020-2.46401E+07-1.10934E+06 2.65531E+02-4.55858E+07 9.27211E+02-1.34813E+03
 -1      1021-5.65174E+07-1.42142E+06-8.06954E+03-4.02398E+07-1.08022E+04 4.04461E+03
 -1      1022-6.14842E+07-1.05639E+06-1.11566E+04-4.06898E+07-5.11505E+03-2.52623E+03
 -1      1023-5.62772E+07-1.67785E+06 2.48729E+03-4.15674E+07-2.82513E+03-3.92681E+03
 -1      1024-3.01661E+07-6.60502E+05-2.89595E+03-4.31035E+07-3.66573E+03 2.14683E+03
 -1      1025-3.00503E+07-7.83581E+05 1.06401E+03-4.45249E+07-6.69234E+02 1.27091E+03
 -1      1026-5.65174E+07-1.42142E+06-8.06256E+03-4.02398E+07 1.07936E+04-4.04683E+03
 -1      1027-6.15386E+07-9.90306E+05-1.85659E+04-4.00131E+07-3.38876E+00-1.09694E+00
 -1      1028-3.01662E+07-6.60501E+05-2.89605E+03-4.31035E+07 3.66395E+03-2.15056E+03
 -1      1029-5.62772E+07-1.67786E+06 2.48228E+03-4.15674E+07 2.82893E+03 3.92345E+03
 -1      1030-6.14842E+07-1.05640E+06-1.11574E+04-4.06898E+07 5.11345E+03 2.52489E+03
 -1      1031-3.00503E+07-7.83583E+05 1.06527E+03-4.45249E+07 6.68235E+02-1.27151E+03
 -1      1032-6.59964E+07-7.40436E+05-5.46625E+03-4.00205E+07-6.04364E+03 1.85280E+03
 -1      1033-7.04981E+07-5.12771E+05-5.34502E+03-4.07253E+07-3.21695E+03-4.05349E+03
 -1      1034-6.59312E+07-8.19163E+05-1.45521E+02-4.14101E+07-1.74111E+03-7.04048E+03
 -1      1035-3.48791E+07-4.64882E+05-6.58972E+02-4.28544E+07-2.90425E+03 4.01735E+02
 -1      1036-3.48418E+07-5.12260E+05-1.38615E+02-4.43016E+07-1.24870E+03-1.87233E+03
 -1      1037-6.59964E+07-7.40438E+05-5.46826E+03-4.00205E+07 6.04081E+03-1.85455E+03
 -1      1038-7.05049E+07-4.99020E+05-1.22972E+04-4.00162E+07-5.55667E-01-3.97573E-01
 -1      1039-3.48791E+07-4.64884E+05-6.59587E+02-4.28544E+07 2.90301E+03-4.03292E+02
 -1      1040-6.59312E+07-8.19164E+05-1.43948E+02-4.14101E+07 1.74021E+03 7.04138E+03
 -1      1041-7.04981E+07-5.12772E+05-5.34467E+03-4.07253E+07 3.21576E+03 4.05318E+03
 -1      1042-3.48418E+07-5.12263E+05-1.38780E+02-4.43016E+07 1.24902E+03 1.87234E+03
 -1      1043-7.48100E+07-3.52677E+05 3.74904E+03-4.00942E+07-5.50356E+03 3.61044E+03
 -1      1044-7.92005E+07-1.91183E+05 6.29801E+01-4.09067E+07-6.51827E+03-8.10568E+03
 -1      1045-7.48398E+07-3.45993E+05 9.98576E+03-4.15426E+07-1.43671E+03-1.46692E+03
 -1      1046-3.93574E+07-2.84877E+05 5.13056E+03-4.28943E+07-7.45742E+03 2.23428E+03
 -1      1047-3.93904E+07-2.84358E+05 8.32159E+03-4.44070E+07-3.96467E+03 5.34863E+03
 -1      1048-7.48100E+07-3.52677E+05 3.74955E+03-4.00942E+07 5.50228E+03-3.61098E+03
 -1      1049-7.91546E+07-2.06575E+05 4.92098E+03-4.01673E+07-4.41964E-01-2.27073E-01
 -1      1050-3.93574E+07-2.84877E+05 5.13081E+03-4.28943E+07 7.45710E+03-2.23502E+03
 -1      1051-7.48398E+07-3.45995E+05 9.98530E+03-4.15426E+07 1.43666E+03 1.46657E+03
 -1      1052-7.92005E+07-1.91185E+05 6.28528E+01-4.09067E+07 6.51794E+03 8.10539E+03
 -1      1053-3.93904E+07-2.84360E+05 8.32157E+03-4.44070E+07 3.96452E+03-5.34872E+03
 -1      1054-8.34606E+07-1.96526E+05 7.51432E+04-4.02448E+07 6.40379E+03 4.00289E+04
 -1      1055-8.77529E+07-8.83506E+04 6.18348E+04-4.11025E+07 1.11372E+04 5.96361E+04
 -1      1056-8.35208E+07-1.33785E+05-4.12267E+04-4.17547E+07 2.70185E+03-1.00150E+04
 -1      1057-4.37674E+07-2.41310E+05 7.11067E+04-4.30315E+07 2.10433E+04 3.16766E+04
 -1      1058-4.38222E+07-2.06359E+05-6.48091E+04-4.46123E+07 4.09042E+03-8.46973E+03
 -1      1059-8.34606E+07-1.96527E+05 7.51431E+04-4.02448E+07-6.40431E+03-4.00293E+04
 -1      1060-8.78164E+07-1.71651E+05 1.23827E+05-4.03413E+07-1.30166E-01-1.45915E-01
 -1      1061-4.37674E+07-2.41311E+05 7.11066E+04-4.30315E+07-2.10434E+04-3.16770E+04
 -1      1062-8.35208E+07-1.33787E+05-4.12265E+04-4.17547E+07-2.70188E+03 1.00151E+04
 -1      1063-8.77529E+07-8.83512E+04 6.18349E+04-4.11025E+07-1.11374E+04-5.96363E+04
 -1      1064-4.38222E+07-2.06360E+05-6.48091E+04-4.46123E+07-4.09039E+03 8.46970E+03
 -1      1065-9.20238E+07-7.70574E+05 2.09390E+05-4.04837E+07 8.96893E+04 2.86886E+05
 -1      1066-9.63076E+07-1.09979E+06 1.02580E+05-4.13539E+07 9.57629E+04 3.40485E+05
 -1      1067-9.17183E+07-3.76168E+05 1.50662E+05-4.19428E+07 2.17642E+04 1.22212E+05
 -1      1068-4.81817E+07-5.72702E+05 2.08773E+05-4.28520E+07 1.90769E+05 2.68730E+05
 -1      1069-4.78301E+07-2.62313E+05 2.65799E+05-4.44522E+07 2.53315E+04 1.58214E+05
 -1      1070-9.20238E+07-7.70574E+05 2.09390E+05-4.04837E+07-8.96896E+04-2.86886E+05
 -1      1071-9.66670E+07-1.27540E+06 5.51817E+05-4.07139E+07-7.21962E-02-8.11775E-02
 -1      1072-4.81817E+07-5.72702E+05 2.08773E+05-4.28520E+07-1.90769E+05-2.68731E+05
 -1      1073-9.17183E+07-3.76169E+05 1.50662E+05-4.19428E+07-2.17642E+04-1.22212E+05
 -1      1074-9.63076E+07-1.09979E+06 1.02580E+05-4.13539E+07-9.57629E+04-3.40485E+05
 -1      1075-4.78301E+07-2.62314E+05 2.65799E+05-4.44522E+07-2.53316E+04-1.58214E+05
 -1      1076-1.00116E+08-2.87882E+06 1.14208E+06-4.03159E+07 5.95433E+05 1.01115E+06
 -1      1077-1.00883E+08-3.62761E+06 1.58703E+06-3.94733E+07 9.21297E+05 1.47419E+06
 -1      1078-9.75354E+07-2.26924E+06-8.40025E+05-4.10359E+07 2.28040E+05 7.21701E+04
 -1      1079-5.17966E+07-2.72006E+06 1.09045E+06-4.17527E+07 1.01835E+06 5.32964E+05
 -1      1080-4.89051E+07-2.14246E+06-4.52276E+05-4.13220E+07 7.00090E+05 3.72019E+05
 -1      1081-1.00116E+08-2.87883E+06 1.14208E+06-4.03159E+07-5.95434E+05-1.01115E+06
 -1      1082-1.04406E+08-4.94160E+06 1.01054E+06-3.99585E+07-7.00782E-02-1.28208E-01
 -1      1083-5.17966E+07-2.72006E+06 1.09045E+06-4.17527E+07-1.01835E+06-5.32965E+05
 -1      1084-9.75354E+07-2.26924E+06-8.40025E+05-4.10359E+07-2.28040E+05-7.21701E+04
 -1      1085-1.00883E+08-3.62761E+06 1.58703E+06-3.94733E+07-9.21297E+05-1.47419E+06
 -1      1086-4.89051E+07-2.14246E+06-4.52277E+05-4.13220E+07-7.00089E+05-3.72019E+05
 -1      1087-1.08067E+08-1.31814E+07-3.53950E+06-3.94917E+07 1.95466E+06 5.68951E+05
 -1      1088-1.00606E+08-1.63536E+07 3.03861E+05-3.57552E+07 2.18982E+06 1.39772E+06
 -1      1089-9.76465E+07-7.94688E+06 2.00351E+06-3.64355E+07 4.33168E+05 1.30779E+06
 -1      1090-5.42858E+07-1.03578E+07-3.51030E+06-3.60364E+07 2.69517E+06-9.85591E+05
 -1      1091-4.58191E+07-5.35256E+06 4.59845E+06-3.03006E+07 5.91359E+05 3.17006E+06
 -1      1092-1.08067E+08-1.31814E+07-3.53950E+06-3.94917E+07-1.95466E+06-5.68951E+05
 -1      1093-1.07826E+08-2.03639E+07-5.33474E+06-3.85336E+07-2.55819E-02-1.76642E-02
 -1      1094-5.42858E+07-1.03578E+07-3.51030E+06-3.60364E+07-2.69517E+06 9.85591E+05
 -1      1095-9.76465E+07-7.94688E+06 2.00351E+06-3.64355E+07-4.33168E+05-1.30779E+06
 -1      1096-1.00606E+08-1.63536E+07 3.03860E+05-3.57552E+07-2.18982E+06-1.39772E+06
 -1      1097-4.58191E+07-5.35256E+06 4.59845E+06-3.03006E+07-5.91359E+05-3.17006E+06
 -1      1098-9.76326E+07-2.93899E+07-1.90219E+07-2.76441E+07 1.11968E+06-4.89999E+06
 -1      1099-1.04325E+08-4.32146E+07-3.50881E+07-1.11453E+07 5.23876E+05-2.05728E+07
 -1      1100-1.03920E+08-2.94936E+07-1.36078E+07-1.81446E+07 1.67226E+06-1.23108E+07
 -1      1101-4.49855E+07-1.82722E+07-1.66966E+07-1.56886E+07-4.25240E+05-2.69046E+06
 -1      1102-6.15787E+07-2.46063E+07-2.12681E+07-2.57420E+06 1.97999E+06-1.82161E+07
 -1      1103-9.76326E+07-2.93899E+07-1.90219E+07-2.76441E+07-1.11968E+06 4.89999E+06
 -1      1104-9.20465E+07-4.09290E+07-3.99443E+07-1.72309E+07-1.16810E-01 6.28839E-01
 -1      1105-4.49855E+07-1.82722E+07-1.66966E+07-1.56886E+07 4.25240E+05 2.69046E+06
 -1      1106-1.03920E+08-2.94936E+07-1.36078E+07-1.81446E+07-1.67226E+06 1.23108E+07
 -1      1107-1.04325E+08-4.32146E+07-3.50881E+07-1.11453E+07-5.23876E+05 2.05728E+07
 -1      1108-6.15787E+07-2.46063E+07-2.12681E+07-2.57420E+06-1.97999E+06 1.82161E+07
 -1      1109-4.70511E+07-8.14105E+06-3.50121E+05-8.56256E+06 2.87573E+05 2.42713E+05
 -1      1110-6.03276E+07-4.58939E+06-2.78364E+05-1.48726E+07 1.66386E+05 1.27511E+05
 -1      1111-7.21733E+07-5.55306E+06-2.49430E+04-1.61844E+07-1.80270E+04 2.69250E+04
 -1      1112-5.77616E+07-7.96300E+06-1.76453E+05-1.15580E+07 3.94535E+04 1.46949E+05
 -1      1113-1.96038E+07-4.51774E+06-6.75420E+05-3.16878E+07 2.05140E+05 6.63835E+05
 -1      1114-1.40896E+07-1.10951E+07-5.43500E+04-3.06016E+07 2.46034E+05 3.36999E+05
 -1      1115-4.64457E+07-5.43737E+06-1.90665E+05-3.12048E+07-1.94664E+04 3.16160E+04
 -1      1116-4.40940E+07-7.98292E+06 1.93249E+04-3.11928E+07-3.20716E+04-1.87482E+04
 -1      1117-4.90919E+07-5.83279E+06-8.77272E+05-1.06816E+07-1.74987E+02 2.95085E+02
 -1      1118-6.03288E+07-4.59283E+06-2.74701E+05-1.48717E+07-1.66423E+05-1.27672E+05
 -1      1119-7.28636E+07-4.55464E+06-7.03258E+04-1.69690E+07 2.13078E+02-1.41204E+02
 -1      1120-1.96127E+07-4.52592E+06-6.75575E+05-3.16812E+07-2.05167E+05-6.63550E+05
 -1      1121-4.64451E+07-5.43891E+06-1.92275E+05-3.12050E+07 1.94978E+04-3.17834E+04
 -1      1122-4.70553E+07-8.14839E+06-3.51263E+05-8.55839E+06-2.87046E+05-2.43162E+05
 -1      1123-5.77621E+07-7.96353E+06-1.79743E+05-1.15580E+07-3.93643E+04-1.47135E+05
 -1      1124-7.21732E+07-5.55140E+06-2.39764E+04-1.61841E+07 1.76651E+04-2.69013E+04
 -1      1125-1.40882E+07-1.10951E+07-5.48198E+04-3.06014E+07-2.46082E+05-3.37929E+05
 -1      1126-4.40952E+07-7.98299E+06 1.98011E+04-3.11925E+07 3.20597E+04 1.90839E+04
 -1      1127-8.25706E+07-3.54226E+06-8.48095E+04-1.91771E+07-4.08942E+04 4.27622E+03
 -1      1128-9.22160E+07-3.04182E+06-4.62330E+04-2.10666E+07-7.00217E+04 6.38294E+03
 -1      1129-8.17531E+07-4.82917E+06 1.62204E+04-1.83266E+07-3.24459E+04 2.01241E+04
 -1      1130-6.53118E+07-3.28946E+06-1.45402E+04-3.13963E+07-4.57680E+04 4.09037E+03
 -1      1131-6.45447E+07-4.19104E+06 3.81590E+04-3.20517E+07-9.31095E+03 9.75062E+03
 -1      1132-8.25705E+07-3.54139E+06-8.56443E+04-1.91774E+07 4.08324E+04-4.35330E+03
 -1      1133-9.23509E+07-2.69039E+06-7.17772E+04-2.10414E+07-1.36546E+01 5.48480E+01
 -1      1134-6.53117E+07-3.28927E+06-1.42552E+04-3.13963E+07 4.57466E+04-4.04410E+03
 -1      1135-8.17535E+07-4.82888E+06 1.70064E+04-1.83265E+07 3.24498E+04-2.00180E+04
 -1      1136-9.22161E+07-3.04205E+06-4.64684E+04-2.10666E+07 7.00138E+04-6.40606E+03
 -1      1137-6.45445E+07-4.19101E+06 3.80131E+04-3.20517E+07 9.29527E+03-9.86171E+03
 -1      1138-1.00898E+08-1.92830E+06-4.88808E+04-2.21317E+07-6.57116E+04 1.41882E+04
 -1      1139-1.09569E+08-1.34171E+06-2.45648E+04-2.36303E+07-4.69017E+04 3.92691E+03
 -1      1140-1.00809E+08-2.36552E+06-8.59895E+03-2.25932E+07-3.44845E+04-8.48349E+02
 -1      1141-8.03728E+07-1.66117E+06-1.38593E+04-3.17531E+07-3.17385E+04 1.60530E+04
 -1      1142-8.01773E+07-1.94942E+06 2.31704E+04-3.27935E+07-1.14920E+04 1.26643E+04
 -1      1143-1.00898E+08-1.92841E+06-4.87252E+04-2.21317E+07 6.56942E+04-1.41540E+04
 -1      1144-1.09530E+08-1.23326E+06-4.69415E+04-2.32049E+07-3.02759E+00-1.83967E+00
 -1      1145-8.03729E+07-1.66121E+06-1.39177E+04-3.17531E+07 3.17272E+04-1.60593E+04
 -1      1146-1.00809E+08-2.36553E+06-8.76638E+03-2.25933E+07 3.44914E+04 8.06883E+02
 -1      1147-1.09569E+08-1.34167E+06-2.45339E+04-2.36303E+07 4.68945E+04-3.91750E+03
 -1      1148-8.01774E+07-1.94940E+06 2.32155E+04-3.27935E+07 1.15011E+04-1.26469E+04
 -1      1149-1.17716E+08-8.81474E+05-3.51737E+04-2.36933E+07-4.15965E+04 1.51286E+04
 -1      1150-1.25989E+08-5.55905E+05-1.51291E+04-2.48252E+07-2.31576E+04-5.94475E+03
 -1      1151-1.17794E+08-1.00147E+06 1.94104E+03-2.47656E+07-1.92999E+04-9.88486E+03
 -1      1152-9.36717E+07-7.91998E+05-1.14672E+04-3.20904E+07-1.64612E+04 1.80580E+04
 -1      1153-9.36434E+07-8.73203E+05 1.04213E+04-3.33329E+07-4.84181E+03 1.59704E+04
 -1      1154-1.17716E+08-8.81460E+05-3.52070E+04-2.36933E+07 4.15906E+04-1.51288E+04
 -1      1155-1.25940E+08-5.30361E+05-3.30458E+04-2.42223E+07-1.19186E+00 2.08251E+00
 -1      1156-9.36717E+07-7.91995E+05-1.14585E+04-3.20904E+07 1.64579E+04-1.80559E+04
 -1      1157-1.17794E+08-1.00146E+06 1.97902E+03-2.47657E+07 1.92994E+04 9.89737E+03
 -1      1158-1.25989E+08-5.55908E+05-1.51318E+04-2.48252E+07 2.31553E+04 5.94607E+03
 -1      1159-9.36434E+07-8.73208E+05 1.04101E+04-3.33329E+07 4.83794E+03-1.59726E+04
 -1      1160-1.34058E+08-3.66592E+05-2.14573E+04-2.44259E+07-2.07209E+04 7.12241E+03
 -1      1161-1.42227E+08-1.92825E+05-5.85096E+03-2.53471E+07-1.11028E+04-1.41713E+04
 -1      1162-1.34143E+08-3.84372E+05-2.43123E+03-2.57506E+07-9.18550E+03-2.17887E+04
 -1      1163-1.06332E+08-3.49884E+05-6.52104E+03-3.23404E+07-7.92877E+03 1.11568E+04
 -1      1164-1.06365E+08-3.58018E+05 1.77543E+03-3.36780E+07-1.93189E+03 6.09319E+03
 -1      1165-1.34058E+08-3.66592E+05-2.14505E+04-2.44259E+07 2.07187E+04-7.11904E+03
 -1      1166-1.42187E+08-1.98641E+05-2.26692E+04-2.46756E+07-6.63704E-01 5.71606E-01
 -1      1167-1.06332E+08-3.49885E+05-6.52242E+03-3.23404E+07 7.92699E+03-1.11569E+04
 -1      1168-1.34143E+08-3.84374E+05-2.44052E+03-2.57506E+07 9.18534E+03 2.17858E+04
 -1      1169-1.42227E+08-1.92826E+05-5.85121E+03-2.53471E+07 1.11022E+04 1.41717E+04
 -1      1170-1.06365E+08-3.58018E+05 1.77825E+03-3.36780E+07 1.93277E+03-6.09290E+03
 -1      1171-1.50323E+08-1.14579E+05-5.16749E+03-2.47392E+07-1.04325E+04 1.59823E+03
 -1      1172-1.58531E+08-3.17145E+03 3.91692E+03-2.55255E+07-5.80465E+03-2.82802E+04
 -1      1173-1.50427E+08-8.73415E+04 1.50347E+04-2.61507E+07-4.85580E+03-9.50160E+03
 -1      1174-1.18804E+08-1.00281E+05 5.54369E+03-3.25049E+07-9.44054E+03 1.14716E+04
 -1      1175-1.18936E+08-6.24914E+04 1.74531E+04-3.38993E+07-6.26515E+03 3.47304E+04
 -1      1176-1.50323E+08-1.14580E+05-5.16902E+03-2.47392E+07 1.04315E+04-1.59781E+03
 -1      1177-1.58445E+08-1.78269E+04 1.29434E+04-2.48312E+07-3.24090E-01 1.40541E-01
 -1      1178-1.18804E+08-1.00281E+05 5.54388E+03-3.25049E+07 9.43991E+03-1.14716E+04
 -1      1179-1.50427E+08-8.73410E+04 1.50371E+04-2.61507E+07 4.85576E+03 9.50235E+03
 -1      1180-1.58531E+08-3.17158E+03 3.91706E+03-2.55255E+07 5.80430E+03 2.82804E+04
 -1      1181-1.18936E+08-6.24926E+04 1.74525E+04-3.38993E+07 6.26483E+03-3.47304E+04
 -1      1182-1.66738E+08 2.29750E+04 1.18174E+05-2.48532E+07-1.48834E+04 5.14066E+04
 -1      1183-1.74995E+08 1.51387E+05 8.64276E+04-2.55734E+07-2.39742E+04 6.97777E+04
 -1      1184-1.66841E+08 7.08478E+04-7.70719E+04-2.62803E+07-1.12275E+03-5.04140E+04
 -1      1185-1.31437E+08-4.73573E+04 1.95310E+05-3.26485E+07 1.69316E+03 8.37901E+04
 -1      1186-1.31597E+08-7.98220E+02-1.64801E+05-3.40588E+07 3.05838E+03-3.49650E+04
 -1      1187-1.66738E+08 2.29751E+04 1.18174E+05-2.48532E+07 1.48829E+04-5.14063E+04
 -1      1188-1.75102E+08 5.73874E+04 1.69197E+05-2.48771E+07-1.38134E-01 6.76341E-02
 -1      1189-1.31437E+08-4.73576E+04 1.95310E+05-3.26485E+07-1.69347E+03-8.37902E+04
 -1      1190-1.66841E+08 7.08471E+04-7.70726E+04-2.62803E+07 1.12272E+03 5.04138E+04
 -1      1191-1.74995E+08 1.51386E+05 8.64275E+04-2.55734E+07 2.39740E+04-6.97777E+04
 -1      1192-1.31597E+08-7.98901E+02-1.64801E+05-3.40588E+07-3.05833E+03 3.49650E+04
 -1      1193-1.83603E+08-3.25275E+05 3.07154E+05-2.50139E+07 9.87563E+03 4.29625E+05
 -1      1194-1.91666E+08-4.12740E+05 2.91041E+05-2.57100E+07-1.63684E+04 4.80060E+05
 -1      1195-1.83020E+08 4.92522E+04 3.13638E+05-2.63490E+07-3.35101E+04 2.55896E+05
 -1      1196-1.44076E+08-5.75953E+05 5.99415E+05-3.29006E+07 8.67830E+04 7.24606E+05
 -1      1197-1.43225E+08 3.95576E+04 7.62242E+05-3.43555E+07-3.03403E+04 5.06275E+05
 -1      1198-1.83603E+08-3.25275E+05 3.07154E+05-2.50139E+07-9.87587E+03-4.29625E+05
 -1      1199-1.92248E+08-4.87334E+05 1.09241E+06-2.50401E+07-7.57940E-02 1.87227E-02
 -1      1200-1.44076E+08-5.75953E+05 5.99415E+05-3.29006E+07-8.67831E+04-7.24606E+05
 -1      1201-1.83020E+08 4.92521E+04 3.13639E+05-2.63490E+07 3.35101E+04-2.55896E+05
 -1      1202-1.91666E+08-4.12740E+05 2.91041E+05-2.57100E+07 1.63683E+04-4.80060E+05
 -1      1203-1.43225E+08 3.95571E+04 7.62242E+05-3.43555E+07 3.03402E+04-5.06275E+05
 -1      1204-2.02534E+08-9.13918E+05 1.59936E+06-2.63065E+07 3.85578E+04 1.78304E+06
 -1      1205-2.08734E+08 2.78950E+05 2.18740E+06-2.87955E+07 2.12003E+05 2.77106E+06
 -1      1206-1.97892E+08-5.66519E+05-1.74198E+06-2.71318E+07 1.35032E+05-6.08581E+04
 -1      1207-1.59429E+08-5.60872E+06 2.03667E+06-3.51437E+07 6.48115E+05 1.55931E+06
 -1      1208-1.51211E+08-3.85613E+06-1.87338E+06-3.47887E+07 6.64114E+05 1.14516E+06
 -1      1209-2.02534E+08-9.13917E+05 1.59936E+06-2.63065E+07-3.85579E+04-1.78304E+06
 -1      1210-2.15183E+08-1.45953E+06 7.74454E+05-2.88991E+07-3.31420E-02-1.10354E-01
 -1      1211-1.59429E+08-5.60872E+06 2.03667E+06-3.51437E+07-6.48116E+05-1.55931E+06
 -1      1212-1.97892E+08-5.66520E+05-1.74198E+06-2.71318E+07-1.35032E+05 6.08583E+04
 -1      1213-2.08734E+08 2.78950E+05 2.18740E+06-2.87955E+07-2.12003E+05-2.77106E+06
 -1      1214-1.51211E+08-3.85613E+06-1.87338E+06-3.47887E+07-6.64114E+05-1.14516E+06
 -1      1215-2.24096E+08-1.70891E+07-8.16076E+06-3.37791E+07 8.89256E+05 1.20013E+06
 -1      1216-2.21867E+08-2.27483E+07-2.28576E+06-4.17235E+07 1.26693E+06 2.91270E+06
 -1      1217-2.03029E+08-7.79678E+06 4.77684E+06-3.07028E+07-2.47721E+05 3.07923E+06
 -1      1218-1.72711E+08-2.29561E+07-1.11329E+07-3.88095E+07 2.41972E+06-2.79754E+06
 -1      1219-1.45353E+08-7.27848E+06 1.51386E+07-3.35853E+07 7.83829E+05 9.18675E+06
 -1      1220-2.24096E+08-1.70891E+07-8.16076E+06-3.37791E+07-8.89256E+05-1.20013E+06
 -1      1221-2.38068E+08-3.05937E+07-1.56279E+07-4.47590E+07-1.36177E-01 6.60361E-02
 -1      1222-1.72711E+08-2.29560E+07-1.11329E+07-3.88095E+07-2.41972E+06 2.79754E+06
 -1      1223-2.03029E+08-7.79677E+06 4.77684E+06-3.07028E+07 2.47722E+05-3.07923E+06
 -1      1224-2.21867E+08-2.27483E+07-2.28577E+06-4.17235E+07-1.26693E+06-2.91270E+06
 -1      1225-1.45353E+08-7.27848E+06 1.51386E+07-3.35853E+07-7.83830E+05-9.18675E+06
 -1      1226-2.07273E+08-4.48140E+07-3.81282E+07-3.69216E+07 5.84794E+05-9.37163E+06
 -1      1227-1.99709E+08-6.98546E+07-6.34339E+07-1.56385E+07 9.14261E+05-4.00837E+07
 -1      1228-2.19572E+08-4.53557E+07-2.66089E+07-2.75194E+07 2.07629E+06-2.45559E+07
 -1      1229-1.34273E+08-5.85245E+07-5.11552E+07-2.13836E+07-4.10147E+05-8.10458E+06
 -1      1230-1.85945E+08-7.87627E+07-6.61078E+07-7.82586E+06 1.68622E+06-5.39209E+07
 -1      1231-2.07273E+08-4.48140E+07-3.81282E+07-3.69217E+07-5.84794E+05 9.37163E+06
 -1      1232-1.72533E+08-6.40727E+07-7.08021E+07-2.19864E+07 4.60496E-01 1.29758E+00
 -1      1233-1.34273E+08-5.85245E+07-5.11552E+07-2.13836E+07 4.10147E+05 8.10459E+06
 -1      1234-2.19572E+08-4.53557E+07-2.66090E+07-2.75194E+07-2.07629E+06 2.45559E+07
 -1      1235-1.99709E+08-6.98546E+07-6.34339E+07-1.56385E+07-9.14262E+05 4.00837E+07
 -1      1236-1.85945E+08-7.87627E+07-6.61078E+07-7.82586E+06-1.68622E+06 5.39209E+07
 -1      1237-1.37142E+08 5.86476E+05 4.42921E+05 3.93241E+06 1.27093E+05-2.49590E+06
 -1      1238-1.36409E+08 8.95041E+05 1.26834E+06 1.80906E+06 1.11572E+05-1.91096E+06
 -1      1239-1.36166E+08 2.85886E+05 4.52250E+05 1.66192E+06-6.71710E+04-9.19843E+05
 -1      1240-1.35701E+08 1.20052E+06 1.24703E+05 3.16700E+06 9.46645E+04-9.00375E+05
 -1      1241-9.46466E+07-2.33054E+06 1.38672E+05-3.09379E+06 2.86921E+05-1.16962E+06
 -1      1242-9.15082E+07-4.20020E+06 3.60398E+03 8.42557E+05 1.62502E+05-6.27676E+05
 -1      1243-1.05287E+08-1.75492E+06 5.48424E+05-7.67536E+06-2.05078E+03-5.48216E+05
 -1      1244-1.04829E+08-2.49429E+06-1.03887E+04-6.24615E+06-8.41581E+04-1.89465E+05
 -1      1245-1.38638E+08 3.10759E+05 8.11108E+05 3.32172E+06 5.80001E+02 2.51020E+02
 -1      1246-1.36406E+08 8.97851E+05 1.26857E+06 1.80764E+06-1.11914E+05 1.91142E+06
 -1      1247-1.36483E+08 2.43424E+05 1.38322E+06 1.37708E+06-3.91550E+00 2.29690E+02
 -1      1248-9.46478E+07-2.33307E+06 1.41193E+05-3.09288E+06-2.86155E+05 1.16982E+06
 -1      1249-1.05287E+08-1.75515E+06 5.47311E+05-7.67471E+06 1.82697E+03 5.48233E+05
 -1      1250-1.37144E+08 5.85911E+05 4.41398E+05 3.93315E+06-1.27643E+05 2.49604E+06
 -1      1251-1.35700E+08 1.20085E+06 1.25516E+05 3.16701E+06-9.45640E+04 9.00374E+05
 -1      1252-1.36165E+08 2.85073E+05 4.51882E+05 1.66161E+06 6.72298E+04 9.19878E+05
 -1      1253-9.15079E+07-4.20146E+06 1.58128E+03 8.43489E+05-1.63370E+05 6.27593E+05
 -1      1254-1.04829E+08-2.49375E+06-9.33788E+03-6.24674E+06 8.43617E+04 1.89484E+05
 -1      1255-1.42393E+08 1.99610E+05 9.42238E+05 6.88280E+05-9.29398E+03-6.06611E+05
 -1      1256-1.48725E+08 3.26634E+05 3.44380E+05 5.46377E+04-2.05780E+04-9.35459E+04
 -1      1257-1.42808E+08 3.30858E+05-4.15113E+04 1.10548E+06-4.10562E+04-2.67368E+05
 -1      1258-1.20793E+08-1.02665E+06 3.10855E+05-1.03749E+07-5.17023E+04-6.96644E+04
 -1      1259-1.21118E+08-1.29767E+06-5.57667E+04-1.03219E+07-3.90317E+04-1.02490E+04
 -1      1260-1.42393E+08 1.98623E+05 9.42141E+05 6.88535E+05 9.31456E+03 6.06738E+05
 -1      1261-1.48585E+08 3.01148E+05 8.53027E+05 4.08036E+03-3.66607E+01-4.21297E+01
 -1      1262-1.20793E+08-1.02644E+06 3.11088E+05-1.03750E+07 5.17108E+04 6.97043E+04
 -1      1263-1.42808E+08 3.30876E+05-4.17063E+04 1.10528E+06 4.10743E+04 2.67292E+05
 -1      1264-1.48725E+08 3.26936E+05 3.44499E+05 5.45575E+04 2.05630E+04 9.35842E+04
 -1      1265-1.21118E+08-1.29767E+06-5.59941E+04-1.03219E+07 3.89696E+04 1.02253E+04
 -1      1266-1.58189E+08 2.01220E+05 5.09222E+05-2.02832E+05-1.65520E+04 7.46495E+04
 -1      1267-1.67960E+08 1.67383E+05 1.45014E+05-4.90495E+05-1.85888E+04 2.75089E+05
 -1      1268-1.58776E+08 2.53371E+05-1.51354E+04-2.47088E+05-7.85787E+03 7.81429E+04
 -1      1269-1.38809E+08-4.63731E+05 1.18717E+05-1.17632E+07-3.99250E+04 1.45935E+05
 -1      1270-1.39156E+08-5.40234E+05-2.71990E+04-1.23513E+07-2.64331E+04 6.01209E+04
 -1      1271-1.58189E+08 2.01434E+05 5.09274E+05-2.02895E+05 1.65400E+04-7.46445E+04
 -1      1272-1.67779E+08 1.59686E+05 3.63532E+05-4.35388E+05 5.06102E+00 1.01189E+01
 -1      1273-1.38809E+08-4.63755E+05 1.18671E+05-1.17632E+07 3.99191E+04-1.45933E+05
 -1      1274-1.58776E+08 2.53356E+05-1.51190E+04-2.47075E+05 7.85611E+03-7.81348E+04
 -1      1275-1.67960E+08 1.67326E+05 1.44996E+05-4.90480E+05 1.85960E+04-2.75093E+05
 -1      1276-1.39156E+08-5.40234E+05-2.71535E+04-1.23513E+07 2.64405E+04-6.01115E+04
 -1      1277-1.78963E+08 8.40184E+04 1.98003E+05-4.97946E+05-1.25039E+04 3.58277E+05
 -1      1278-1.90177E+08 7.97797E+04 5.62425E+04-7.29192E+05-8.15792E+03 3.84548E+05
 -1      1279-1.79345E+08 1.08138E+05-8.84346E+03-7.43025E+05-7.74089E+03 1.97681E+05
 -1      1280-1.58066E+08-2.04321E+05 3.08343E+04-1.23716E+07-2.05633E+04 2.07601E+05
 -1      1281-1.58272E+08-2.20203E+05-1.23765E+04-1.32174E+07-1.21061E+04 8.23289E+04
 -1      1282-1.78963E+08 8.39699E+04 1.97983E+05-4.97932E+05 1.25068E+04-3.58272E+05
 -1      1283-1.90058E+08 7.72690E+04 1.26924E+05-6.31555E+05-7.62447E-01-1.00519E-01
 -1      1284-1.58066E+08-2.04319E+05 3.08439E+04-1.23716E+07 2.05625E+04-2.07597E+05
 -1      1285-1.79345E+08 1.08147E+05-8.84283E+03-7.43030E+05 7.74084E+03-1.97683E+05
 -1      1286-1.90177E+08 7.97903E+04 5.62459E+04-7.29192E+05 8.15728E+03-3.84545E+05
 -1      1287-1.58272E+08-2.20205E+05-1.23870E+04-1.32174E+07 1.21054E+04-8.23307E+04
 -1      1288-2.01800E+08 3.58259E+04 6.16058E+04-6.26015E+05-6.39745E+03 4.39322E+05
 -1      1289-2.13566E+08 1.86297E+04 9.76971E+03-7.99733E+05-2.36912E+03 4.06829E+05
 -1      1290-2.02008E+08 4.43936E+04-5.72354E+03-9.35954E+05-2.55629E+02 2.30873E+05
 -1      1291-1.77857E+08-7.28299E+04 2.92440E+03-1.26278E+07-1.05238E+04 2.10623E+05
 -1      1292-1.77982E+08-7.25072E+04-7.06940E+03-1.35638E+07-1.91589E+03 7.22023E+04
 -1      1293-2.01800E+08 3.58368E+04 6.16122E+04-6.26017E+05 6.39686E+03-4.39320E+05
 -1      1294-2.13496E+08 1.65741E+04 1.84428E+04-6.89465E+05 3.42356E-02 1.14393E+00
 -1      1295-1.77857E+08-7.28298E+04 2.92270E+03-1.26278E+07 1.05231E+04-2.10622E+05
 -1      1296-2.02008E+08 4.43920E+04-5.72429E+03-9.35952E+05 2.55518E+02-2.30872E+05
 -1      1297-2.13566E+08 1.86268E+04 9.76897E+03-7.99734E+05 2.36951E+03-4.06828E+05
 -1      1298-1.77982E+08-7.25069E+04-7.06686E+03-1.35638E+07 1.91592E+03-7.22017E+04
 -1      1299-2.25389E+08 4.41278E+04 1.96521E+04-6.42721E+05-2.75998E+03 4.54164E+05
 -1      1300-2.37336E+08 8.40551E+04 3.62508E+04-7.86414E+05-3.93248E+03 3.88580E+05
 -1      1301-2.25537E+08 4.46268E+04 1.79102E+04-9.74864E+05-9.27320E+03 2.42221E+05
 -1      1302-1.97864E+08-1.27897E+04-8.60331E+03-1.27092E+07-3.92281E+03 2.02767E+05
 -1      1303-1.98032E+08 1.67753E+04 2.24249E+04-1.36586E+07-9.90588E+03 1.08155E+05
 -1      1304-2.25389E+08 4.41250E+04 1.96505E+04-6.42721E+05 2.76008E+03-4.54162E+05
 -1      1305-2.37232E+08 8.25117E+04 2.54994E+04-6.68631E+05-4.97048E-02 4.56700E-01
 -1      1306-1.97864E+08-1.27899E+04-8.60298E+03-1.27092E+07 3.92250E+03-2.02766E+05
 -1      1307-2.25537E+08 4.46273E+04 1.79105E+04-9.74864E+05 9.27333E+03-2.42221E+05
 -1      1308-2.37336E+08 8.40562E+04 3.62512E+04-7.86414E+05 3.93241E+03-3.88579E+05
 -1      1309-1.98032E+08 1.67751E+04 2.24242E+04-1.36586E+07 9.90590E+03-1.08156E+05
 -1      1310-2.49169E+08-1.23125E+05 9.86635E+04-6.62442E+05-4.86596E+03 4.85087E+05
 -1      1311-2.60975E+08-2.90483E+05-1.14005E+04-7.93793E+05 1.66588E+04 4.63878E+05
 -1      1312-2.49204E+08-1.11886E+05-1.13837E+05-9.48365E+05 2.78695E+04 2.17687E+05
 -1      1313-2.17881E+08 7.16349E+04 3.01597E+05-1.26549E+07-2.48433E+04 2.56201E+05
 -1      1314-2.18090E+08-2.13592E+04-2.26154E+05-1.35938E+07 3.27363E+04 3.51763E+03
 -1      1315-2.49169E+08-1.23124E+05 9.86639E+04-6.62442E+05 4.86592E+03-4.85087E+05
 -1      1316-2.61167E+08-3.71960E+05 7.53792E+04-7.03460E+05-6.71203E-03 3.22449E-01
 -1      1317-2.17881E+08 7.16349E+04 3.01597E+05-1.26549E+07 2.48431E+04-2.56200E+05
 -1      1318-2.49204E+08-1.11886E+05-1.13837E+05-9.48365E+05-2.78696E+04-2.17687E+05
 -1      1319-2.60975E+08-2.90483E+05-1.14006E+04-7.93794E+05-1.66587E+04-4.63878E+05
 -1      1320-2.18090E+08-2.13593E+04-2.26154E+05-1.35938E+07-3.27363E+04-3.51758E+03
 -1      1321-2.72904E+08 6.11432E+05 6.80500E+05-3.98696E+05-2.96947E+04 9.82927E+05
 -1      1322-2.83965E+08 1.72567E+06 1.32954E+06-3.21466E+05-1.95869E+04 1.07912E+06
 -1      1323-2.72375E+08 5.74602E+05 4.63955E+05-8.50541E+05-1.07074E+05 4.08443E+05
 -1      1324-2.38779E+08-2.06731E+05 6.43226E+05-1.27506E+07-5.26022E+03 1.10671E+06
 -1      1325-2.37558E+08 5.20202E+05 1.06598E+06-1.36097E+07-8.51186E+04 8.34522E+05
 -1      1326-2.72904E+08 6.11432E+05 6.80500E+05-3.98696E+05 2.96947E+04-9.82927E+05
 -1      1327-2.84492E+08 1.90789E+06 2.24482E+06-1.67375E+05-1.45278E-02 2.09893E-01
 -1      1328-2.38779E+08-2.06731E+05 6.43226E+05-1.27506E+07 5.26011E+03-1.10671E+06
 -1      1329-2.72375E+08 5.74602E+05 4.63955E+05-8.50541E+05 1.07074E+05-4.08443E+05
 -1      1330-2.83965E+08 1.72567E+06 1.32954E+06-3.21466E+05 1.95868E+04-1.07912E+06
 -1      1331-2.37558E+08 5.20202E+05 1.06598E+06-1.36097E+07 8.51185E+04-8.34522E+05
 -1      1332-2.98334E+08-2.59860E+06 1.75416E+06-1.20061E+06-1.37888E+05 2.32258E+06
 -1      1333-3.04294E+08-3.29724E+06 2.09715E+06 4.60364E+04-2.32481E+05 3.26887E+06
 -1      1334-2.92481E+08-2.70654E+06-3.10006E+06-1.13098E+06 2.14697E+05 2.79610E+05
 -1      1335-2.62310E+08 9.75233E+05 4.81491E+06-1.30980E+07-3.44116E+05 1.61895E+06
 -1      1336-2.51403E+08 8.04562E+05-1.94585E+06-1.36046E+07 3.74086E+05 1.74165E+06
 -1      1337-2.98334E+08-2.59860E+06 1.75416E+06-1.20061E+06 1.37888E+05-2.32258E+06
 -1      1338-3.11663E+08-4.97655E+06 6.47721E+05 5.96203E+04-1.38287E-01-1.13722E-01
 -1      1339-2.62310E+08 9.75234E+05 4.81491E+06-1.30980E+07 3.44116E+05-1.61895E+06
 -1      1340-2.92481E+08-2.70654E+06-3.10006E+06-1.13098E+06-2.14697E+05-2.79610E+05
 -1      1341-3.04294E+08-3.29723E+06 2.09715E+06 4.60363E+04 2.32482E+05-3.26887E+06
 -1      1342-2.51403E+08 8.04561E+05-1.94585E+06-1.36046E+07-3.74086E+05-1.74165E+06
 -1      1343-3.27466E+08 1.01925E+07-3.06500E+06 1.39244E+06-4.22585E+05 1.52541E+06
 -1      1344-3.30561E+08 3.42760E+07 1.47922E+07 1.21433E+07-1.02011E+06 6.49294E+06
 -1      1345-3.08569E+08 1.06234E+07 9.07641E+06-1.02850E+06-1.59544E+06 2.04430E+06
 -1      1346-2.96496E+08-5.04320E+06-1.35170E+07-1.99492E+07 6.17632E+05-3.84668E+06
 -1      1347-2.56159E+08 1.10260E+07 2.74467E+07-1.63648E+07-1.05171E+06 1.74211E+07
 -1      1348-3.27466E+08 1.01925E+07-3.06500E+06 1.39244E+06 4.22585E+05-1.52541E+06
 -1      1349-3.46714E+08 3.45428E+07 2.33360E+06 1.21894E+07 1.35884E-01-3.31780E-01
 -1      1350-2.96496E+08-5.04320E+06-1.35170E+07-1.99492E+07-6.17632E+05 3.84668E+06
 -1      1351-3.08569E+08 1.06234E+07 9.07640E+06-1.02850E+06 1.59544E+06-2.04430E+06
 -1      1352-3.30561E+08 3.42760E+07 1.47922E+07 1.21433E+07 1.02011E+06-6.49294E+06
 -1      1353-2.56159E+08 1.10260E+07 2.74467E+07-1.63648E+07 1.05171E+06-1.74211E+07
 -1      1354-3.89268E+08-5.62825E+07-7.61255E+07-4.46652E+07-2.56011E+05-1.43179E+07
 -1      1355-4.61703E+08-1.63588E+08-1.54252E+08-1.06155E+08 1.90277E+06-6.71181E+07
 -1      1356-4.01854E+08-6.13063E+07-5.52584E+07-3.54397E+07 2.35186E+06-3.73758E+07
 -1      1357-2.89033E+08-9.68645E+07-1.03021E+08-6.63492E+07-3.89432E+05-1.32920E+07
 -1      1358-3.66373E+08-1.24863E+08-1.21986E+08-5.26444E+07 4.13457E+06-9.57345E+07
 -1      1359-3.89268E+08-5.62825E+07-7.61255E+07-4.46652E+07 2.56011E+05 1.43179E+07
 -1      1360-4.34902E+08-1.63568E+08-1.79496E+08-1.13425E+08-1.41794E+00 3.22391E+00
 -1      1361-2.89033E+08-9.68645E+07-1.03021E+08-6.63492E+07 3.89433E+05 1.32920E+07
 -1      1362-4.01854E+08-6.13063E+07-5.52584E+07-3.54397E+07-2.35186E+06 3.73758E+07
 -1      1363-4.61703E+08-1.63588E+08-1.54252E+08-1.06155E+08-1.90277E+06 6.71181E+07
 -1      1364-3.66373E+08-1.24863E+08-1.21986E+08-5.26444E+07-4.13457E+06 9.57345E+07
 -1      1365 9.12092E+06 3.17456E+07-2.39888E+05-6.62075E+07 1.31564E+06-3.13803E+05
 -1      1366 1.48653E+03 5.21841E+07-9.67722E+04-3.59689E+07 3.28526E+06-2.42100E+05
 -1      1367 2.19277E+07 2.53078E+07-2.54190E+05-4.80266E+07 1.90017E+06-1.82566E+06
 -1      1368 3.50093E+07 3.06216E+06-9.98382E+04-7.45520E+07-6.46745E+04-1.57067E+06
 -1      1369 1.08068E+07-1.44645E+06-1.18352E+06-1.15930E+07-1.87857E+05-1.69322E+07
 -1      1370 9.94004E+07 1.54875E+07 9.31008E+06-3.60893E+07 2.78722E+06-1.33802E+07
 -1      1371 1.62427E+08 3.68450E+07 8.51044E+06-7.16345E+07 6.11260E+06-1.11805E+07
 -1      1372 8.47060E+07 1.72895E+07 4.41645E+05-4.08123E+07 2.40697E+06-9.94665E+06
 -1      1373 2.42781E+07 7.09071E+05-1.25828E+06-3.61531E+07-1.77215E+04-8.83555E+06
 -1      1374 2.21652E+07 8.17566E+05-1.06240E+05-5.46009E+07-1.35246E+05-5.40020E+06
 -1      1375 9.00760E+07 4.43875E+07 9.54365E+06-5.26675E+07 4.60788E+06-5.72772E+06
 -1      1376 6.53899E+07 5.08152E+07-3.36824E+05-5.58092E+07 2.91367E+06-3.21105E+06
 -1      1377 9.67909E+06 4.87585E+07 5.05273E+05-3.27696E+07 2.23486E+02-2.09558E+02
 -1      1378 2.19261E+07 2.53041E+07-2.57381E+05-4.80293E+07-1.90031E+06 1.82550E+06
 -1      1379 3.58095E+07 2.53976E+06-4.04420E+05-6.46250E+07 1.84885E+02 3.20563E+02
 -1      1380 1.29976E+07-1.20004E+06-2.47765E+06-1.02810E+07-7.50418E+02-1.00400E+03
 -1      1381 9.94035E+07 1.54964E+07 9.31379E+06-3.60864E+07-2.78702E+06 1.33804E+07
 -1      1382 1.70750E+08 3.77699E+07 2.04333E+07-7.39415E+07 6.72481E+01 3.64680E+02
 -1      1383 2.42837E+07 7.07620E+05-1.25832E+06-3.61524E+07 1.76673E+04 8.83516E+06
 -1      1384 9.00760E+07 4.43867E+07 9.54385E+06-5.26671E+07-4.60796E+06 5.72776E+06
 -1      1385 1.20726E+03 5.21850E+07-9.67859E+04-3.59681E+07-3.28534E+06 2.42217E+05
 -1      1386 9.12149E+06 3.17456E+07-2.38036E+05-6.62078E+07-1.31598E+06 3.14015E+05
 -1      1387 3.50120E+07 3.06168E+06-9.93194E+04-7.45512E+07 6.41318E+04 1.57063E+06
 -1      1388 1.08060E+07-1.44377E+06-1.18264E+06-1.15931E+07 1.88624E+05 1.69323E+07
 -1      1389 8.47046E+07 1.72887E+07 4.40480E+05-4.08127E+07-2.40698E+06 9.94620E+06
 -1      1390 1.62428E+08 3.68421E+07 8.50975E+06-7.16353E+07-6.11285E+06 1.11802E+07
 -1      1391 2.21649E+07 8.17024E+05-1.05696E+05-5.46004E+07 1.35012E+05 5.40062E+06
 -1      1392 6.53899E+07 5.08155E+07-3.37125E+05-5.58094E+07-2.91354E+06 3.21090E+06
 -1      1393 1.83423E+06 4.56015E+07-7.84937E+05-1.67730E+07 1.93687E+06 9.94819E+05
 -1      1394 2.49509E+07 3.47611E+07-2.41686E+05-1.03062E+06 2.99424E+06 2.63983E+06
 -1      1395 1.99975E+07 4.35193E+07-4.22686E+04-1.81155E+07 3.63209E+06 8.91520E+05
 -1      1396 1.64019E+08 8.85581E+07 2.24239E+07-1.09623E+08 3.83452E+06-5.43283E+06
 -1      1397 1.37257E+08 1.38946E+08 1.15257E+07-1.30700E+08 2.46478E+06 3.79660E+05
 -1      1398 1.41756E+08 8.20310E+07-1.41703E+05-9.90466E+07 2.86097E+06-3.50065E+06
 -1      1399 8.82767E+07 9.27713E+07 1.28860E+07-7.00461E+07 2.65061E+06 1.36427E+06
 -1      1400 7.33939E+07 8.05509E+07-1.09531E+05-5.65898E+07 1.92038E+06 1.28139E+06
 -1      1401 3.03427E+07 3.87688E+07 8.70065E+05-4.85833E+06-6.01217E+01 5.61843E+01
 -1      1402 1.99982E+07 4.35205E+07-4.13436E+04-1.81151E+07-3.63213E+06-8.91461E+05
 -1      1403 1.64018E+08 8.85559E+07 2.24229E+07-1.09623E+08-3.83451E+06 5.43272E+06
 -1      1404 1.44307E+08 1.45874E+08 2.81986E+07-1.36988E+08 2.15635E+01-1.07988E+02
 -1      1405 8.82767E+07 9.27714E+07 1.28860E+07-7.00461E+07-2.65058E+06-1.36426E+06
 -1      1406 2.49509E+07 3.47609E+07-2.41737E+05-1.03081E+06-2.99424E+06-2.63987E+06
 -1      1407 1.83407E+06 4.56013E+07-7.85498E+05-1.67729E+07-1.93669E+06-9.94900E+05
 -1      1408 1.41757E+08 8.20312E+07-1.41225E+05-9.90465E+07-2.86102E+06 3.50084E+06
 -1      1409 1.37257E+08 1.38947E+08 1.15259E+07-1.30699E+08-2.46476E+06-3.79571E+05
 -1      1410 7.33939E+07 8.05508E+07-1.09504E+05-5.65898E+07-1.92043E+06-1.28139E+06
 -1      1411 3.74263E+07 1.12564E+07-6.44276E+05-1.15973E+07 1.25536E+06 1.94199E+06
 -1      1412 5.13761E+07 4.65099E+06 2.00882E+05-2.78438E+07 1.43915E+05 3.68135E+06
 -1      1413 3.86000E+07 2.78758E+07 3.25000E+05-1.46681E+07 1.46248E+06 3.51883E+06
 -1      1414 9.05352E+07 1.76108E+08 2.37462E+07-1.16082E+08-3.38020E+06 2.57527E+06
 -1      1415 4.34168E+07 1.89261E+08 1.03045E+07-7.88317E+07-8.74803E+06 5.53106E+06
 -1      1416 8.19879E+07 1.52960E+08-1.25702E+06-1.03872E+08-2.12406E+06 1.71636E+06
 -1      1417 4.76156E+07 1.07583E+08 1.21976E+07-5.28213E+07-4.69286E+06 4.56621E+06
 -1      1418 5.18314E+07 8.00350E+07-8.34360E+05-5.26309E+07-2.12316E+06 2.82049E+06
 -1      1419 4.90904E+07 1.50685E+07 1.46567E+06-2.59277E+07 2.29215E+01-6.05774E+00
 -1      1420 3.85998E+07 2.78756E+07 3.24777E+05-1.46683E+07-1.46247E+06-3.51885E+06
 -1      1421 9.05354E+07 1.76108E+08 2.37464E+07-1.16082E+08 3.38020E+06-2.57526E+06
 -1      1422 4.48366E+07 1.99259E+08 2.54723E+07-8.20462E+07-2.24351E+01 2.30859E+01
 -1      1423 4.76155E+07 1.07583E+08 1.21976E+07-5.28214E+07 4.69285E+06-4.56621E+06
 -1      1424 5.13761E+07 4.65100E+06 2.00885E+05-2.78438E+07-1.43926E+05-3.68135E+06
 -1      1425 3.74263E+07 1.12565E+07-6.44105E+05-1.15973E+07-1.25540E+06-1.94196E+06
 -1      1426 8.19877E+07 1.52960E+08-1.25719E+06-1.03872E+08 2.12407E+06-1.71639E+06
 -1      1427 4.34167E+07 1.89260E+08 1.03045E+07-7.88319E+07 8.74804E+06-5.53108E+06
 -1      1428 5.18314E+07 8.00351E+07-8.34360E+05-5.26309E+07 2.12317E+06-2.82048E+06
 -1      1429 2.89352E+07 8.66953E+06-9.06247E+05-5.69975E+07-4.59626E+05 1.73919E+06
 -1      1430-7.85447E+06 3.77063E+07-8.98794E+02-6.60072E+07-2.55988E+06 1.16749E+05
 -1      1431 2.39651E+07 2.30097E+07 5.81316E+04-4.12146E+07-2.29032E+06 2.19672E+06
 -1      1432 1.59121E+07 1.43849E+08 1.67080E+07-4.14869E+07-1.37567E+07 2.53900E+06
 -1      1433-2.56585E+07 6.18062E+07 3.31256E+05-1.72208E+07-2.01636E+07 5.76466E+04
 -1      1434 1.67770E+07 1.25660E+08 2.23605E+06-4.50460E+07-9.97710E+06 2.79056E+06
 -1      1435-1.65809E+07 4.99740E+07 3.85887E+05-3.61275E+07-1.06123E+07 8.38288E+04
 -1      1436-1.65878E+07 4.91833E+07-1.03349E+04-5.47061E+07-7.12067E+06 6.33676E+04
 -1      1437-7.82833E+06 3.79557E+07 3.77057E+04-5.67847E+07-3.17147E-01 8.13733E+00
 -1      1438 2.39652E+07 2.30097E+07 5.81790E+04-4.12146E+07 2.29031E+06-2.19671E+06
 -1      1439 1.59121E+07 1.43849E+08 1.67079E+07-4.14870E+07 1.37567E+07-2.53900E+06
 -1      1440-2.56455E+07 6.21803E+07 8.13646E+05-1.59060E+07-1.80214E+00-1.16410E+01
 -1      1441-1.65809E+07 4.99740E+07 3.85890E+05-3.61275E+07 1.06123E+07-8.38218E+04
 -1      1442-7.85449E+06 3.77063E+07-9.05918E+02-6.60072E+07 2.55988E+06-1.16750E+05
 -1      1443 2.89352E+07 8.66952E+06-9.06282E+05-5.69975E+07 4.59645E+05-1.73919E+06
 -1      1444 1.67770E+07 1.25660E+08 2.23609E+06-4.50460E+07 9.97710E+06-2.79057E+06
 -1      1445-2.56585E+07 6.18062E+07 3.31264E+05-1.72208E+07 2.01636E+07-5.76368E+04
 -1      1446-1.65878E+07 4.91833E+07-1.03415E+04-5.47061E+07 7.12067E+06-6.33714E+04
 -1      1447-8.16785E+06-7.12156E+05-4.49084E+05 2.57618E+05-5.09364E+05 3.36674E+06
 -1      1448-6.16131E+07-4.41390E+06-2.74221E+06 1.93770E+07-1.56373E+06 3.81624E+06
 -1      1449-5.76112E+06-1.93013E+06-5.40678E+06 2.68618E+06-9.42412E+05 6.13454E+06
 -1      1450 6.10070E+07 6.71068E+05-5.41822E+05-9.43565E+06-2.12922E+05 8.00690E+06
 -1      1451 4.83835E+07 1.47213E+06-3.59086E+05-3.43229E+07-1.56187E+05 2.42507E+06
 -1      1452 4.70643E+07 2.38253E+06-2.78890E+05-4.91133E+07-9.77413E+04 1.92464E+06
 -1      1453-2.23557E+07 1.88736E+07-3.81301E+06-6.45320E+06 1.32164E+06 1.50200E+06
 -1      1454-3.48892E+07 2.50007E+07 6.57118E+05-1.05896E+07 1.97145E+05 9.41260E+05
 -1      1455-5.98605E+07-4.20964E+06-9.02886E+06 1.85912E+07-1.84532E+02 5.69255E+01
 -1      1456-5.76110E+06-1.93084E+06-5.40699E+06 2.68865E+06 9.42746E+05-6.13437E+06
 -1      1457 6.08298E+07 5.49556E+05-1.05132E+05-9.53441E+06 2.51339E+02-8.32098E+01
 -1      1458 4.83832E+07 1.47584E+06-3.60229E+05-3.43218E+07 1.56315E+05-2.42493E+06
 -1      1459-2.23561E+07 1.88737E+07-3.81248E+06-6.45336E+06-1.32170E+06-1.50201E+06
 -1      1460-6.16131E+07-4.41359E+06-2.74194E+06 1.93761E+07 1.56366E+06-3.81623E+06
 -1      1461-8.16813E+06-7.12691E+05-4.49687E+05 2.57981E+05 5.09291E+05-3.36689E+06
 -1      1462 6.10063E+07 6.71446E+05-5.42480E+05-9.43475E+06 2.13021E+05-8.00671E+06
 -1      1463 4.70638E+07 2.38256E+06-2.77756E+05-4.91132E+07 9.74790E+04-1.92478E+06
 -1      1464-3.48889E+07 2.50007E+07 6.56726E+05-1.05897E+07-1.97115E+05-9.41246E+05
 -1      1465-6.53684E+07-2.85417E+07 2.76745E+05 4.27006E+07-6.53701E+05 1.31821E+06
 -1      1466-5.66457E+07-5.57896E+07-3.29661E+06 5.89005E+07-2.94278E+05 2.68978E+05
 -1      1467-6.04334E+07-2.79588E+07-8.91332E+06 4.03820E+07-6.64106E+05 2.32268E+06
 -1      1468-1.25769E+07-8.03887E+06-4.41075E+06 2.38210E+07 1.67818E+06 1.66856E+06
 -1      1469-1.92222E+07-1.26135E+07 5.02277E+05 3.02880E+07 5.28281E+05 5.83286E+05
 -1      1470-5.48758E+07-5.39646E+07-1.07438E+07 5.69215E+07 5.31858E+01-1.39409E+00
 -1      1471-6.04339E+07-2.79589E+07-8.91343E+06 4.03816E+07 6.64044E+05-2.32274E+06
 -1      1472-1.25768E+07-8.03871E+06-4.41085E+06 2.38210E+07-1.67817E+06-1.66857E+06
 -1      1473-5.66456E+07-5.57896E+07-3.29663E+06 5.89006E+07 2.94289E+05-2.68972E+05
 -1      1474-6.53683E+07-2.85414E+07 2.76939E+05 4.27004E+07 6.53651E+05-1.31814E+06
 -1      1475-1.92222E+07-1.26135E+07 5.02373E+05 3.02880E+07-5.28307E+05-5.83279E+05
 -1      1476-3.22870E+07-7.19832E+07 7.19232E+04 4.72164E+07 8.53178E+05-4.22120E+05
 -1      1477-8.11930E+06-7.51246E+07-3.27618E+06 2.66468E+07 3.43591E+06-1.43033E+06
 -1      1478-3.11761E+07-6.68852E+07-9.61031E+06 4.43380E+07 1.83732E+06-2.99179E+05
 -1      1479 1.78524E+07-2.64576E+07-3.77532E+06-5.35840E+05 1.50145E+06 1.61581E+06
 -1      1480 2.29235E+07-4.04852E+07 6.73185E+05-2.70903E+06 9.64630E+05 2.86890E+05
 -1      1481-7.73504E+06-7.26728E+07-9.89711E+06 2.55381E+07-1.53043E+01-1.68479E+01
 -1      1482-3.11759E+07-6.68851E+07-9.61025E+06 4.43381E+07-1.83732E+06 2.99208E+05
 -1      1483 1.78524E+07-2.64576E+07-3.77526E+06-5.35817E+05-1.50145E+06-1.61581E+06
 -1      1484-8.11939E+06-7.51245E+07-3.27617E+06 2.66468E+07-3.43591E+06 1.43033E+06
 -1      1485-3.22870E+07-7.19833E+07 7.18617E+04 4.72164E+07-8.53138E+05 4.22090E+05
 -1      1486 2.29235E+07-4.04852E+07 6.73155E+05-2.70905E+06-9.64629E+05-2.86896E+05
 -1      1487 2.74804E+04-3.26058E+07 1.47139E+04 4.75696E+06 3.12654E+06-3.86259E+05
 -1      1488-6.08945E+04 2.48517E+07-9.44529E+04-8.08759E+06 5.92277E+06-1.55188E+03
 -1      1489-1.03727E+06-2.86941E+07-4.83078E+06 6.59823E+06 4.92366E+06-5.85984E+05
 -1      1490-4.12924E+06 3.16067E+07-1.24268E+05-2.86185E+07 8.88556E+05 6.91146E+04
 -1      1491-4.10393E+06 3.12520E+07 1.25854E+04-4.20013E+07 9.51798E+05 2.37401E+04
 -1      1492-6.52624E+04 2.49613E+07-3.08111E+05-8.27789E+06-2.81629E-01 6.72235E+00
 -1      1493-1.03733E+06-2.86941E+07-4.83081E+06 6.59821E+06-4.92365E+06 5.85978E+05
 -1      1494-4.12922E+06 3.16068E+07-1.24287E+05-2.86185E+07-8.88558E+05-6.91110E+04
 -1      1495-6.08437E+04 2.48517E+07-9.44477E+04-8.08760E+06-5.92277E+06 1.55291E+03
 -1      1496 2.74756E+04-3.26057E+07 1.47212E+04 4.75698E+06-3.12656E+06 3.86260E+05
 -1      1497-4.10393E+06 3.12520E+07 1.26039E+04-4.20013E+07-9.51797E+05-2.37382E+04
 -1      1498 5.78157E+07-4.17584E+07 4.46317E+05-4.39194E+07-1.47200E+06-3.37413E+05
 -1      1499 5.86372E+07-5.40055E+07 2.21538E+04 1.65323E+06-3.38073E+06-1.72248E+05
 -1      1500 4.50911E+07-3.61462E+07 1.96804E+05-2.69098E+07-2.28845E+06-1.89951E+06
 -1      1501 3.84009E+07-2.10470E+07 3.59303E+03-7.00727E+07-5.77716E+05-1.75437E+06
 -1      1502 6.93257E+07-5.09661E+07-4.97576E+05-1.12796E+07-1.20865E+04-1.71085E+07
 -1      1503-2.36712E+07-5.62768E+07-1.17120E+07-1.04377E+07-2.68862E+06-1.29843E+07
 -1      1504-8.91756E+07-6.65910E+07-8.98150E+06-1.87864E+07-5.73224E+06-9.95629E+06
 -1      1505-7.75708E+06-5.77073E+07-3.18681E+05-1.44224E+07-2.29898E+06-9.38348E+06
 -1      1506 5.25569E+07-3.63383E+07-7.36039E+05-3.41647E+07-3.77167E+05-9.08337E+06
 -1      1507 5.54988E+07-3.62662E+07 1.95070E+05-5.27172E+07-9.32881E+04-5.45158E+06
 -1      1508-2.44809E+07-6.03256E+07-1.01392E+07-8.03275E+06-4.48693E+06-5.18466E+06
 -1      1509 2.80868E+05-6.56032E+07 3.36418E+05-9.59188E+06-2.86222E+06-2.79838E+06
 -1      1510 4.91004E+07-5.12462E+07-7.36218E+05 4.13085E+06-2.75353E+02-2.67418E+02
 -1      1511 4.50930E+07-3.61412E+07 2.00611E+05-2.69131E+07 2.28864E+06 1.89934E+06
 -1      1512 3.77808E+07-2.06581E+07 1.39607E+05-6.00720E+07-2.67055E+02 5.77328E+02
 -1      1513 6.68782E+07-5.12281E+07-1.54736E+06-9.92081E+06 5.54468E+02-1.26851E+03
 -1      1514-2.36745E+07-5.62876E+07-1.17164E+07-1.04338E+07 2.68839E+06 1.29845E+07
 -1      1515-9.78760E+07-6.77171E+07-2.16872E+07-2.13516E+07-3.36803E+01 4.70854E+02
 -1      1516 5.25502E+07-3.63358E+07-7.36066E+05-3.41629E+07 3.77221E+05 9.08295E+06
 -1      1517-2.44811E+07-6.03245E+07-1.01392E+07-8.03225E+06 4.48700E+06 5.18469E+06
 -1      1518 5.86376E+07-5.40069E+07 2.21447E+04 1.65426E+06 3.38090E+06 1.72391E+05
 -1      1519 5.78150E+07-4.17584E+07 4.44199E+05-4.39197E+07 1.47220E+06 3.37631E+05
 -1      1520 3.83969E+07-2.10453E+07 3.29453E+03-7.00709E+07 5.78286E+05 1.75409E+06
 -1      1521 6.93262E+07-5.09687E+07-4.98569E+05-1.12789E+07 1.15772E+04 1.71088E+07
 -1      1522-7.75547E+06-5.77066E+07-3.17142E+05-1.44227E+07 2.29915E+06 9.38289E+06
 -1      1523-8.91760E+07-6.65875E+07-8.98072E+06-1.87877E+07 5.73241E+06 9.95590E+06
 -1      1524 5.54989E+07-3.62655E+07 1.94509E+05-5.27168E+07 9.35313E+04 5.45192E+06
 -1      1525 2.80937E+05-6.56035E+07 3.36744E+05-9.59216E+06 2.86211E+06 2.79824E+06
 -1      1526 3.90871E+07-2.89128E+07 7.25386E+05 2.61498E+07-1.92544E+06 1.04110E+06
 -1      1527-1.43253E+04-1.30154E+06 2.97126E+05 4.54170E+07-2.83644E+06 2.70628E+06
 -1      1528 2.21670E+07-2.85942E+07-3.76754E+04 2.38223E+07-3.55184E+06 1.03050E+06
 -1      1529-1.12403E+08-8.87640E+07-2.25706E+07-4.34509E+07-3.21412E+06-4.46540E+06
 -1      1530-1.08306E+08-1.08952E+08-1.12997E+07-4.95700E+07-1.56131E+06 1.23297E+06
 -1      1531-9.01960E+07-8.13653E+07 2.21197E+05-3.22938E+07-2.38774E+06-2.81379E+06
 -1      1532-6.09015E+07-6.15204E+07-1.25842E+07-6.54310E+06-2.11916E+06 1.84940E+06
 -1      1533-4.72668E+07-4.79668E+07 1.16938E+05 6.93949E+06-1.61847E+06 1.54490E+06
 -1      1534-4.72993E+06-6.01378E+06-7.73664E+05 4.15493E+07 5.97253E+01 6.57685E+01
 -1      1535 2.21662E+07-2.85957E+07-3.87795E+04 2.38227E+07 3.55190E+06-1.03043E+06
 -1      1536-1.12401E+08-8.87614E+07-2.25694E+07-4.34515E+07 3.21410E+06 4.46525E+06
 -1      1537-1.15315E+08-1.16010E+08-2.76305E+07-5.59206E+07-2.82655E+01-1.37164E+02
 -1      1538-6.09014E+07-6.15205E+07-1.25842E+07-6.54306E+06 2.11914E+06-1.84940E+06
 -1      1539-1.43547E+04-1.30118E+06 2.97185E+05 4.54167E+07 2.83644E+06-2.70633E+06
 -1      1540 3.90873E+07-2.89126E+07 7.26033E+05 2.61499E+07 1.92525E+06-1.04120E+06
 -1      1541-9.01966E+07-8.13656E+07 2.20595E+05-3.22938E+07 2.38777E+06 2.81406E+06
 -1      1542-1.08306E+08-1.08953E+08-1.12999E+07-4.95696E+07 1.56130E+06-1.23287E+06
 -1      1543-4.72667E+07-4.79667E+07 1.16912E+05 6.93948E+06 1.61852E+06-1.54491E+06
 -1      1544-2.79522E+07 3.79502E+07 6.29828E+05 2.70704E+07-1.17463E+06 1.88437E+06
 -1      1545-5.57340E+07 5.90287E+07-2.01078E+05 2.95237E+06 1.68318E+04 3.54410E+06
 -1      1546-2.78310E+07 2.04163E+07-2.67415E+05 2.45157E+07-1.24794E+06 3.51903E+06
 -1      1547-8.87815E+07-1.13626E+08-2.28586E+07-4.51945E+07 4.15416E+06 3.09504E+06
 -1      1548-6.98333E+07-9.39484E+07-9.73208E+06-1.83906E+07 9.42939E+06 5.71355E+06
 -1      1549-8.09068E+07-9.05713E+07 1.21359E+06-3.34299E+07 2.64225E+06 2.06160E+06
 -1      1550-6.25259E+07-2.80050E+07-1.15354E+07-7.07118E+06 5.12688E+06 4.60419E+06
 -1      1551-6.74238E+07-9.28529E+05 8.23663E+05-7.79057E+06 2.36990E+06 2.80646E+06
 -1      1552-5.30914E+07 4.86441E+07-1.38541E+06 5.24247E+06-2.60329E+01-6.44496E+00
 -1      1553-2.78307E+07 2.04165E+07-2.67159E+05 2.45155E+07 1.24793E+06-3.51906E+06
 -1      1554-8.87817E+07-1.13627E+08-2.28589E+07-4.51941E+07-4.15416E+06-3.09502E+06
 -1      1555-7.11304E+07-1.03550E+08-2.40804E+07-2.13909E+07 3.15692E+01 2.50141E+01
 -1      1556-6.25259E+07-2.80050E+07-1.15354E+07-7.07126E+06-5.12687E+06-4.60419E+06
 -1      1557-5.57340E+07 5.90287E+07-2.01078E+05 2.95244E+06-1.68181E+04-3.54410E+06
 -1      1558-2.79522E+07 3.79501E+07 6.29634E+05 2.70703E+07 1.17468E+06-1.88433E+06
 -1      1559-8.09066E+07-9.05713E+07 1.21378E+06-3.34299E+07-2.64225E+06-2.06166E+06
 -1      1560-6.98332E+07-9.39484E+07-9.73204E+06-1.83908E+07-9.42940E+06-5.71357E+06
 -1      1561-6.74238E+07-9.28584E+05 8.23656E+05-7.79055E+06-2.36992E+06-2.80645E+06
 -1      1562-3.94748E+07 6.08856E+07 8.61880E+05-4.17466E+07 4.99479E+05 1.61029E+06
 -1      1563-3.41353E+07 4.71544E+07-2.86582E+04-2.54476E+07 2.39568E+06 2.00475E+06
 -1      1564-5.45810E+07-3.38136E+07-1.53412E+07-1.10488E+07 1.40916E+07 2.59664E+06
 -1      1565-5.56680E+07-1.71209E+07-2.26580E+06-1.50440E+07 1.01992E+07 2.81483E+06
 -1      1566-3.41353E+07 4.71543E+07-2.87134E+04-2.54475E+07-2.39567E+06-2.00474E+06
 -1      1567-5.45810E+07-3.38135E+07-1.53412E+07-1.10489E+07-1.40916E+07-2.59663E+06
 -1      1568-3.94748E+07 6.08856E+07 8.61920E+05-4.17466E+07-4.99500E+05-1.61030E+06
 -1      1569-5.56680E+07-1.71209E+07-2.26584E+06-1.50440E+07-1.01992E+07-2.81483E+06
 -1      1570 7.70111E+07 4.50676E+06-5.33346E+04 1.40890E+07 4.86839E+05 2.84228E+06
 -1      1571 1.18616E+08 1.45434E+07 2.69331E+06 4.39844E+07 1.34390E+06 3.25457E+06
 -1      1572 7.49363E+07 5.49995E+06 5.85860E+06 1.61535E+07 7.16569E+05 5.46379E+06
 -1      1573 2.31846E+07 6.84574E+04 1.85815E+06-7.35328E+06 9.76830E+04 7.33133E+06
 -1      1574 3.07433E+07-9.80295E+06 1.78791E+06-3.05997E+07-2.74510E+05 2.04695E+06
 -1      1575 3.05679E+07-1.05896E+07 1.87559E+05-4.52673E+07-8.69549E+04 1.60978E+06
 -1      1576 8.04152E+07-1.54867E+07 3.55384E+06 2.40650E+07-1.47369E+06 1.24669E+06
 -1      1577 9.29961E+07-2.07701E+07-5.84672E+05 2.10499E+07-3.05564E+05 8.45921E+05
 -1      1578 1.16536E+08 1.43310E+07 8.80833E+06 4.31263E+07 2.57661E+02 8.72106E+01
 -1      1579 7.49360E+07 5.49922E+06 5.85828E+06 1.61557E+07-7.16836E+05-5.46355E+06
 -1      1580 2.42627E+07 2.49306E+05 3.50677E+06-7.40082E+06-3.39310E+02-3.27735E+02
 -1      1581 3.07428E+07-9.80718E+06 1.78880E+06-3.05974E+07 2.74279E+05-2.04676E+06
 -1      1582 8.04156E+07-1.54871E+07 3.55318E+06 2.40648E+07 1.47378E+06-1.24671E+06
 -1      1583 1.18616E+08 1.45434E+07 2.69302E+06 4.39834E+07-1.34390E+06-3.25456E+06
 -1      1584 7.70115E+07 4.50745E+06-5.25460E+04 1.40895E+07-4.86830E+05-2.84247E+06
 -1      1585 2.31859E+07 6.65772E+04 1.85853E+06-7.35286E+06-9.77284E+04-7.33096E+06
 -1      1586 3.05685E+07-1.05894E+07 1.86590E+05-4.52670E+07 8.73363E+04-1.60999E+06
 -1      1587 9.29958E+07-2.07702E+07-5.84250E+05 2.10497E+07 3.05541E+05-8.45872E+05
 -1      1588 1.08285E+08 4.88002E+07-9.87351E+04 7.04565E+07 4.82700E+05 1.09614E+06
 -1      1589 8.51235E+07 8.53552E+07 3.16653E+06 8.83853E+07 2.80196E+03-1.32082E+04
 -1      1590 1.03177E+08 4.79032E+07 8.79680E+06 6.78213E+07 3.88072E+05 1.88717E+06
 -1      1591 3.97696E+07 3.89580E+07 4.32450E+06 6.19870E+07-1.71531E+06 1.58995E+06
 -1      1592 4.55754E+07 4.45929E+07-5.18985E+05 6.85807E+07-5.51224E+05 5.12151E+05
 -1      1593 8.32865E+07 8.34388E+07 1.04129E+07 8.63398E+07-5.76749E+01-5.51525E+00
 -1      1594 1.03178E+08 4.79039E+07 8.79703E+06 6.78211E+07-3.88042E+05-1.88723E+06
 -1      1595 3.97694E+07 3.89578E+07 4.32458E+06 6.19871E+07 1.71529E+06-1.58995E+06
 -1      1596 8.51235E+07 8.53551E+07 3.16656E+06 8.83854E+07-2.80862E+03 1.32125E+04
 -1      1597 1.08285E+08 4.87998E+07-9.89843E+04 7.04563E+07-4.82601E+05-1.09606E+06
 -1      1598 4.55755E+07 4.45929E+07-5.19096E+05 6.85807E+07 5.51258E+05-5.12143E+05
 -1      1599 4.96726E+07 1.09351E+08-1.17412E+05 7.11892E+07-9.99990E+05-5.42216E+05
 -1      1600 1.53353E+07 1.19698E+08 3.12366E+06 4.48414E+07-3.63975E+06-1.51319E+06
 -1      1601 4.87177E+07 1.04093E+08 9.21817E+06 6.83730E+07-2.08925E+06-5.02463E+05
 -1      1602-1.63954E+07 8.07608E+07 3.56545E+06 2.44821E+07-1.48748E+06 1.50080E+06
 -1      1603-2.18716E+07 9.47749E+07-6.31712E+05 2.17633E+07-9.85734E+05 2.44351E+05
 -1      1604 1.49692E+07 1.17364E+08 9.37634E+06 4.37843E+07 1.50141E+01-2.17975E+01
 -1      1605 4.87176E+07 1.04093E+08 9.21810E+06 6.83730E+07 2.08926E+06 5.02493E+05
 -1      1606-1.63954E+07 8.07608E+07 3.56539E+06 2.44822E+07 1.48748E+06-1.50081E+06
 -1      1607 1.53354E+07 1.19698E+08 3.12363E+06 4.48414E+07 3.63975E+06 1.51320E+06
 -1      1608 4.96726E+07 1.09351E+08-1.17330E+05 7.11892E+07 9.99937E+05 5.42179E+05
 -1      1609-2.18716E+07 9.47749E+07-6.31678E+05 2.17633E+07 9.85733E+05-2.44356E+05
 -1      1610 3.21552E+06 7.97226E+07 5.43005E+03 1.38046E+07-3.19385E+06-4.06072E+05
 -1      1611 4.29398E+06 7.61213E+07 4.29519E+06 1.57631E+07-5.02266E+06-6.51282E+05
 -1      1612 4.29402E+06 7.61213E+07 4.29522E+06 1.57631E+07 5.02264E+06 6.51278E+05
 -1      1613 3.21553E+06 7.97226E+07 5.41460E+03 1.38046E+07 3.19387E+06 4.06074E+05
 -1      1614 2.06950E+07 2.04228E+07-2.39433E+05-6.36764E+07-1.05071E+06 2.14424E+06
 -1      1615 4.09715E+07 3.85633E+07 5.07014E+05-7.60364E+07 2.04358E+03 6.89817E+02
 -1      1616 2.06902E+07 2.04313E+07-2.38138E+05-6.36883E+07 1.05128E+06-2.14379E+06
 -1      1617-6.40884E+06 2.03994E+07-5.36628E+04-6.90465E+07 2.19754E+06-4.64213E+04
 -1      1618-1.00127E+07 2.64010E+07-5.21172E+04-6.97554E+07 3.51698E+02 9.22586E-01
 -1      1619-6.40208E+06 2.04012E+07-5.24242E+04-6.90475E+07-2.19746E+06 4.62619E+04
 -1      1620 1.10610E+07 3.62260E+07 2.47059E+05-7.21724E+07 2.83678E+06-1.79572E+06
 -1      1621 1.10890E+07 3.62205E+07 2.51635E+05-7.21846E+07-2.83502E+06 1.79589E+06
 -1      1622 4.29551E+07 2.89126E+07-9.20460E+04-7.71573E+07 1.07698E+06-2.79364E+06
 -1      1623 2.69635E+07 6.54334E+06 2.51711E+05-6.63954E+07 5.08194E+05-7.49158E+05
 -1      1624-6.15549E+06 1.99442E+07-1.35216E+04-7.95117E+07 3.63328E+05-1.05979E+04
 -1      1625-9.93991E+06 2.61754E+07-1.20011E+04-7.52352E+07 2.30498E+06-6.58723E+04
 -1      1626 1.50470E+07 2.55278E+07 4.15792E+05-8.16693E+07 6.97276E+05-5.41525E+05
 -1      1627-1.72422E+07 8.13116E+06-6.05762E+05-1.88663E+07 1.55646E+06 1.28918E+06
 -1      1628 1.68907E+07 2.57222E+07-9.49856E+05-2.43020E+07-1.39471E+03-3.91778E+03
 -1      1629-1.71431E+07 8.17062E+06-6.09943E+05-1.89101E+07-1.55620E+06-1.29162E+06
 -1      1630 3.35964E+07 3.14819E+07-5.83731E+05-5.09199E+07-5.79259E+05-2.91302E+06
 -1      1631 3.34963E+07 3.13801E+07-5.95583E+05-5.08261E+07 5.81556E+05 2.90989E+06
 -1      1632 1.67338E+07 2.01097E+07-6.54159E+05-2.02983E+07-2.65596E+06-2.06722E+06
 -1      1633-1.36703E+07 5.62472E+05 3.16999E+05-1.17458E+07-5.77438E+05-4.51172E+05
 -1      1634 3.66071E+07 1.30544E+07-9.37994E+05-4.73404E+07-9.22994E+05-1.37645E+06
 -1      1635 4.29785E+07 2.88867E+07-9.36840E+04-7.71486E+07-1.07567E+06 2.79316E+06
 -1      1636 2.69630E+07 6.54311E+06 2.51722E+05-6.63953E+07-5.07202E+05 7.48264E+05
 -1      1637-6.15566E+06 1.99447E+07-1.24492E+04-7.95117E+07-3.63464E+05 1.14379E+04
 -1      1638-9.94877E+06 2.61814E+07-1.35905E+04-7.52362E+07-2.30528E+06 6.63226E+04
 -1      1639 1.50457E+07 2.55273E+07 4.14323E+05-8.16693E+07-6.98656E+05 5.42328E+05
 -1      1640 1.66213E+07 2.00521E+07-6.53609E+05-2.02291E+07 2.65608E+06 2.06777E+06
 -1      1641-1.36680E+07 5.63560E+05 3.11539E+05-1.17447E+07 5.76364E+05 4.52465E+05
 -1      1642 3.66091E+07 1.30572E+07-9.33809E+05-4.73420E+07 9.22833E+05 1.37795E+06
 -1      1643 2.09790E+07 1.12066E+08 6.65549E+06-8.97875E+07-5.45087E+06 4.06812E+06
 -1      1644 2.48275E+07 8.76130E+07 4.80142E+05-8.96987E+07-3.33623E+06 2.75027E+06
 -1      1645-5.65369E+06 1.77468E+08 6.26228E+06-9.88493E+07-1.01034E+07 5.18338E+06
 -1      1646-2.57318E+07 4.67165E+07-2.33330E+04 2.28292E+05-1.01649E+07-8.52034E+03
 -1      1647-1.78842E+07 3.60866E+07-1.75994E+04-4.44421E+07-2.99619E+06 1.79028E+04
 -1      1648-1.79265E+07 3.67087E+07-9.29679E+04-3.41430E+07-7.37579E+06 5.47644E+04
 -1      1649-3.01085E+07 1.02984E+08-2.97477E+06-4.82251E+07-7.08634E+06 8.29281E+05
 -1      1650-3.07224E+07 1.15346E+08 1.61753E+06-4.67301E+07-1.01696E+07 2.36376E+06
 -1      1651 7.70213E+07 7.93481E+07 8.95280E+06-9.70908E+07 1.79576E+06 2.58036E+06
 -1      1652 6.80999E+07 6.17199E+07-1.52175E+06-8.33054E+07 1.00272E+06 1.48293E+06
 -1      1653 1.31155E+08 1.21730E+08 8.26091E+06-1.67616E+08 1.96298E+05 3.05084E+06
 -1      1654 6.26608E+07 1.40842E+08 1.11371E+06-1.28813E+08-3.00706E+06 3.08231E+06
 -1      1655 7.00507E+07 1.66787E+08 1.86135E+07-1.41295E+08-4.78776E+06 3.67943E+06
 -1      1656 2.09316E+07 1.12107E+08 6.65576E+06-8.97866E+07 5.45391E+06-4.06896E+06
 -1      1657-5.67167E+06 1.77469E+08 6.25791E+06-9.88433E+07 1.01084E+07-5.18295E+06
 -1      1658 2.48276E+07 8.76129E+07 4.80615E+05-8.97010E+07 3.33532E+06-2.74838E+06
 -1      1659-1.78821E+07 3.60861E+07-1.76587E+04-4.44422E+07 2.99614E+06-1.82731E+04
 -1      1660-2.57353E+07 4.67159E+07-2.57372E+04 2.28635E+05 1.01651E+07 8.13138E+03
 -1      1661-1.79183E+07 3.66985E+07-9.32629E+04-3.41419E+07 7.37580E+06-5.41698E+04
 -1      1662-3.01075E+07 1.02985E+08-2.97719E+06-4.82262E+07 7.08856E+06-8.30922E+05
 -1      1663-3.07103E+07 1.15353E+08 1.62328E+06-4.67392E+07 1.01685E+07-2.36296E+06
 -1      1664-4.09483E+06 1.88048E+08 1.41548E+07-1.02395E+08-4.03404E+03-6.87769E+02
 -1      1665-2.57237E+07 4.71267E+07-2.78447E+04 8.80558E+05-2.49204E+02 8.58126E+02
 -1      1666 7.71494E+07 7.94529E+07 8.97416E+06-9.72200E+07-1.79474E+06-2.58054E+06
 -1      1667 1.31172E+08 1.21767E+08 8.27746E+06-1.67652E+08-1.99072E+05-3.05590E+06
 -1      1668 6.81020E+07 6.17193E+07-1.52943E+06-8.33006E+07-1.00306E+06-1.48407E+06
 -1      1669 6.26643E+07 1.40841E+08 1.11752E+06-1.28814E+08 3.00599E+06-3.08246E+06
 -1      1670 7.00078E+07 1.66835E+08 1.86166E+07-1.41320E+08 4.79032E+06-3.67809E+06
 -1      1671 1.38684E+08 1.30882E+08 2.27766E+07-1.74383E+08 5.83240E+03 7.19726E+03
 -1      1672-7.03179E+07 9.98910E+06-2.68539E+06-1.01708E+07 1.84149E+06 5.47060E+04
 -1      1673-7.02020E+07 1.00217E+07-2.68394E+06-1.02068E+07-1.84307E+06-5.63079E+04
 -1      1674-1.56613E+08-4.50906E+06-6.54378E+06 7.85380E+06-2.24505E+03 1.83644E+03
 -1      1675-1.46045E+08-2.87281E+06-2.25271E+06 5.35364E+06-3.82407E+05 2.60931E+06
 -1      1676-1.46046E+08-2.86276E+06-2.25408E+06 5.34412E+06 3.82489E+05-2.60903E+06
 -1      1677-6.69139E+07 6.30281E+06 5.23583E+05-3.77210E+06-7.13248E+05 8.66651E+04
 -1      1678-1.54408E+08-3.57325E+06-2.03172E+06 8.45352E+06-5.19558E+05 2.47490E+06
 -1      1679-1.42191E+08-2.26111E+06-2.25342E+05 7.89285E+06 1.66008E+05 1.47356E+06
 -1      1680-1.54411E+08-3.56162E+06-2.03166E+06 8.44112E+06 5.20639E+05-2.47729E+06
 -1      1681-6.69129E+07 6.30188E+06 5.22985E+05-3.76878E+06 7.13364E+05-8.68660E+04
 -1      1682-1.42191E+08-2.26065E+06-2.22449E+05 7.89422E+06-1.66173E+05-1.47451E+06
 -1      1683 1.74060E+07 3.12841E+07 3.95341E+04-4.21011E+07 3.67203E+06 7.47460E+05
 -1      1684 1.29734E+07 3.37651E+07 6.31128E+05-6.60724E+07 3.64576E+06-5.70150E+05
 -1      1685 9.61548E+06 2.62600E+07-8.93662E+05-3.88366E+07 1.94879E+06 1.02069E+06
 -1      1686-1.43868E+08-2.40397E+06-1.74055E+05 4.35989E+06 6.71644E+05-1.48188E+05
 -1      1687-1.28177E+08-2.32445E+06-5.35268E+06-3.07807E+06 1.26674E+05 3.99791E+06
 -1      1688-1.47784E+08-3.55535E+06-9.61017E+06 4.17092E+06 6.85958E+05 8.91559E+05
 -1      1689-5.58759E+07 1.29184E+07 4.19641E+05-3.85197E+07 7.97356E+05 6.62885E+05
 -1      1690-5.04559E+07 1.12329E+07-5.13999E+06-3.34495E+07 2.38263E+06 1.34848E+06
 -1      1691 2.73454E+07 5.52970E+06 5.81336E+05-6.26611E+07 1.75758E+06-2.04432E+06
 -1      1692 1.94679E+07 7.90528E+06-4.40350E+05-8.02152E+07 1.17488E+06-6.50474E+05
 -1      1693-5.56117E+07-3.89474E+05-1.77845E+05-9.72825E+06-1.47283E+05 4.81700E+06
 -1      1694-5.40241E+07-3.81417E+05-4.72516E+06-5.37993E+06 4.63356E+04 5.88565E+06
 -1      1695 1.92378E+07 3.32430E+07 2.05348E+06-6.37644E+07 7.01398E+02 7.20107E+02
 -1      1696 2.73707E+07 5.50345E+06 5.73143E+05-6.26606E+07-1.75747E+06 2.04629E+06
 -1      1697-5.40212E+07-3.75378E+05-4.72421E+06-5.38400E+06-4.55667E+04-5.88572E+06
 -1      1698-1.27447E+08-1.88777E+06-1.34561E+07-2.54853E+06 9.39948E+01 1.25813E+03
 -1      1699-5.04171E+07 1.12366E+07-5.13846E+06-3.34704E+07-2.38203E+06-1.34748E+06
 -1      1700 1.30199E+07 3.37523E+07 6.34272E+05-6.60887E+07-3.64597E+06 5.72156E+05
 -1      1701 1.94692E+07 7.90556E+06-4.35214E+05-8.02162E+07-1.17482E+06 6.49386E+05
 -1      1702-5.56135E+07-3.91429E+05-1.78739E+05-9.72943E+06 1.47224E+05-4.81662E+06
 -1      1703-1.28176E+08-2.31689E+06-5.35035E+06-3.07864E+06-1.26404E+05-3.99877E+06
 -1      1704-5.58778E+07 1.29179E+07 4.19936E+05-3.85206E+07-7.97874E+05-6.62584E+05
 -1      1705 1.75938E+07 3.13555E+07 6.01040E+04-4.22039E+07-3.67349E+06-7.47591E+05
 -1      1706-1.47785E+08-3.57014E+06-9.60993E+06 4.19093E+06-6.87173E+05-8.90582E+05
 -1      1707 9.61230E+06 2.62569E+07-9.03879E+05-3.88359E+07-1.94740E+06-1.01958E+06
 -1      1708-1.43867E+08-2.40003E+06-1.72020E+05 4.35897E+06-6.71627E+05 1.46287E+05
 -1      1709 1.14896E+08 2.12172E+07 1.12963E+07-8.58926E+07 4.21127E+06-4.82486E+06
 -1      1710 1.82565E+08 6.97150E+07 2.22825E+07-1.48095E+08 2.46314E+06-3.11958E+06
 -1      1711 1.62178E+08 6.04227E+07 6.90983E+05-1.36282E+08 1.79280E+06-1.29479E+06
 -1      1712 9.58542E+07 2.37994E+07 9.76781E+02-8.71936E+07 2.78913E+06-2.57955E+06
 -1      1713 2.08201E+08 2.51058E+06 1.00073E+07-1.08710E+08 5.12600E+06-9.00696E+06
 -1      1714 1.46479E+08-3.00332E+07 9.39757E+06-5.35633E+07 2.13706E+06-1.25197E+07
 -1      1715 1.37327E+08-2.86570E+07-2.70503E+05-5.84505E+07 1.88190E+06-9.57354E+06
 -1      1716 1.62178E+08 6.04281E+07 6.95248E+05-1.36282E+08-1.79284E+06 1.29302E+06
 -1      1717 2.08204E+08 2.49299E+06 1.00044E+07-1.08705E+08-5.12592E+06 9.01140E+06
 -1      1718 1.82591E+08 6.96846E+07 2.22864E+07-1.48125E+08-2.46224E+06 3.12277E+06
 -1      1719 9.58532E+07 2.38001E+07 2.97101E+03-8.71956E+07-2.78734E+06 2.57841E+06
 -1      1720 1.14957E+08 2.11778E+07 1.12976E+07-8.58967E+07-4.21228E+06 4.82856E+06
 -1      1721 1.37325E+08-2.86575E+07-2.75417E+05-5.84505E+07-1.88280E+06 9.57482E+06
 -1      1722 1.46488E+08-3.00144E+07 9.40812E+06-5.35648E+07-2.13650E+06 1.25195E+07
 -1      1723 2.14846E+08 3.16954E+06 2.29840E+07-1.10876E+08-9.85160E+02-1.73055E+03
 -1      1724-5.01351E+07 1.14453E+07 1.11586E+05-4.98862E+07 1.12739E+06 2.68497E+06
 -1      1725-2.43576E+07 1.05489E+07 3.22039E+05-4.48031E+07 1.11511E+06 2.03676E+06
 -1      1726-3.01098E+07 2.33724E+07-1.57218E+05-4.76776E+07 5.24110E+05 7.00862E+05
 -1      1727-2.90911E+07 2.09482E+07-3.94149E+05-6.78134E+07 6.71518E+05 4.86956E+05
 -1      1728-2.54770E+07 1.13533E+07-2.87422E+05-5.82880E+07 2.85357E+06 1.65147E+06
 -1      1729 7.66507E+05-6.30847E+06 7.30955E+05 1.06923E+07-2.44943E+06 1.99247E+06
 -1      1730 2.84551E+07 1.56703E+06 7.59813E+05 4.40009E+05-1.30382E+06 1.24588E+06
 -1      1731 2.56463E+07 8.92661E+06-2.96887E+05 8.04087E+06-4.75577E+05 4.44175E+05
 -1      1732-3.10841E+07 1.29391E+07 8.17865E+05-1.82036E+07-8.43837E+05 1.27610E+06
 -1      1733-2.77952E+07-4.78069E+06 6.72582E+05-2.17934E+07-4.15584E+05 2.79847E+06
 -1      1734-4.82474E+07 2.40568E+06-4.08975E+05-4.86641E+07-2.71227E+03 6.53629E+02
 -1      1735-2.43610E+07 1.05512E+07 3.20543E+05-4.48160E+07-1.11578E+06-2.03638E+06
 -1      1736-2.54637E+07 1.13572E+07-2.85607E+05-5.82815E+07-2.85526E+06-1.65123E+06
 -1      1737-5.01243E+07 1.14356E+07 1.09638E+05-4.98968E+07-1.12807E+06-2.68531E+06
 -1      1738-3.01105E+07 2.33723E+07-1.57018E+05-4.76776E+07-5.24811E+05-7.01565E+05
 -1      1739-2.90922E+07 2.09485E+07-3.94642E+05-6.78134E+07-6.70222E+05-4.86178E+05
 -1      1740 6.12090E+05-1.21065E+07 1.12760E+06 6.22923E+06 1.49139E+03-4.06239E+03
 -1      1741 2.83610E+07 1.54254E+06 7.64694E+05 4.18244E+05 1.30374E+06-1.24831E+06
 -1      1742-2.79045E+07-4.84269E+06 6.62908E+05-2.18567E+07 4.13149E+05-2.80164E+06
 -1      1743 6.58672E+05-6.35279E+06 7.31169E+05 1.06532E+07 2.44917E+06-1.99230E+06
 -1      1744 2.56486E+07 8.92750E+06-3.02336E+05 8.03994E+06 4.76398E+05-4.43031E+05
 -1      1745-3.10827E+07 1.29411E+07 8.21073E+05-1.82021E+07 8.44172E+05-1.27482E+06
 -1      1746-3.84340E+07-5.35875E+07-6.07222E+06-4.93680E+07-5.49230E+06-3.96062E+06
 -1      1747-2.31626E+07-1.01259E+08-5.77151E+06-4.56414E+07-9.97132E+06-4.98949E+06
 -1      1748-4.21923E+07-3.04917E+07-4.39941E+05-4.96477E+07-3.28577E+06-2.61477E+06
 -1      1749-1.04589E+07-1.96264E+07 2.79849E+06-2.24446E+07-6.92051E+06-7.91513E+05
 -1      1750-9.78725E+06-3.05818E+07-1.46181E+06-2.08178E+07-1.01266E+07-2.29152E+06
 -1      1751-3.84621E+07-5.35695E+07-6.07175E+06-4.93662E+07 5.48922E+06 3.96009E+06
 -1      1752-2.46244E+07-1.11188E+08-1.29891E+07-4.89686E+07 3.98850E+03-5.92610E+02
 -1      1753-9.78002E+06-3.05777E+07-1.45823E+06-2.08091E+07 1.01276E+07 2.29191E+06
 -1      1754-5.65545E+07-5.93995E+07-8.16935E+06-4.57202E+07 1.40035E+06-2.82461E+06
 -1      1755-1.07652E+08-9.63172E+07-7.87268E+06-9.39442E+07-4.03730E+05-3.61743E+06
 -1      1756-4.83047E+07-4.12133E+07 1.47237E+06-3.15620E+07 8.13959E+05-1.59936E+06
 -1      1757-6.46721E+07-8.98449E+07-9.46239E+05-6.53616E+07-3.11860E+06-3.18055E+06
 -1      1758-7.15588E+07-1.15157E+08-1.70624E+07-7.74520E+07-5.04633E+06-3.91929E+06
 -1      1759-5.64313E+07-5.93072E+07-8.14831E+06-4.56346E+07-1.40136E+06 2.82361E+06
 -1      1760-1.15105E+08-1.05689E+08-2.14758E+07-1.00802E+08-4.89002E+03 6.20383E+03
 -1      1761-7.15951E+07-1.15111E+08-1.70596E+07-7.74343E+07 5.04371E+06 3.92076E+06
 -1      1762-4.21917E+07-3.04917E+07-4.39309E+05-4.96452E+07 3.28686E+06 2.61628E+06
 -1      1763-2.31751E+07-1.01261E+08-5.77535E+06-4.56471E+07 9.96653E+06 4.98989E+06
 -1      1764-1.04575E+07-1.96257E+07 2.79693E+06-2.24435E+07 6.91833E+06 7.90489E+05
 -1      1765-4.83028E+07-4.12147E+07 1.46484E+06-3.15667E+07-8.14034E+05 1.59885E+06
 -1      1766-1.07639E+08-9.62821E+07-7.85816E+06-9.39164E+07 4.05314E+05 3.61307E+06
 -1      1767-6.46693E+07-8.98461E+07-9.43278E+05-6.53603E+07 3.11979E+06 3.18024E+06
 -1      1768 8.64006E+07-4.83080E+06 2.01254E+06 5.99574E+06-1.65798E+06-4.46981E+05
 -1      1769 8.62975E+07-4.85442E+06 2.01175E+06 5.98514E+06 1.65943E+06 4.45130E+05
 -1      1770 1.71063E+08 2.73012E+06 5.17385E+06 8.75792E+06 1.57783E+03 2.29109E+03
 -1      1771 1.48224E+08 1.30348E+06 8.89556E+05 5.67566E+06 2.96553E+05 3.03832E+06
 -1      1772 1.48220E+08 1.29294E+06 8.89862E+05 5.66723E+06-2.96781E+05-3.03806E+06
 -1      1773 8.38244E+07-9.41038E+05-4.88688E+05 1.34981E+07 6.66596E+05 2.84976E+05
 -1      1774 1.69434E+08 1.77575E+06 1.62074E+06 9.61311E+06 4.86808E+05 3.33098E+06
 -1      1775 1.46488E+08 6.32725E+05 2.02166E+05 8.54334E+06-1.97038E+05 1.66782E+06
 -1      1776 1.69431E+08 1.76516E+06 1.61987E+06 9.60256E+06-4.87356E+05-3.33369E+06
 -1      1777 8.38236E+07-9.40829E+05-4.87848E+05 1.35011E+07-6.66450E+05-2.85035E+05
 -1      1778 1.46489E+08 6.32440E+05 1.99547E+05 8.54447E+06 1.97354E+05-1.66859E+06
 -1      1779 1.54595E+07-2.59357E+07 1.84776E+04-1.01858E+07 3.72602E+06-8.00344E+05
 -1      1780 1.06095E+08-1.34145E+07 5.91970E+06-1.65079E+07 2.64977E+06-6.15677E+05
 -1      1781 1.82934E+08 2.36266E+06 9.15457E+06 5.35541E+06 7.84709E+05 5.47822E+05
 -1      1782 1.78903E+08 1.34097E+06-1.46497E+05 6.52355E+06 5.85785E+05 1.01321E+06
 -1      1783 1.09139E+08-1.44422E+07-5.67887E+05-1.92868E+07 9.46323E+05-2.07780E+05
 -1      1784 2.20319E+07-1.97192E+07 9.14046E+05-4.71118E+06 1.92490E+06-1.00733E+06
 -1      1785 1.87431E+08 2.95879E+06 5.92254E+06-1.43796E+06 2.95602E+05-2.17805E+06
 -1      1786 3.63803E+07-3.78225E+07-6.99593E+05-3.26517E+07 4.00584E+06 4.45357E+05
 -1      1787 3.52840E+07-1.75141E+07-7.67698E+05-4.85467E+07 2.26842E+06 1.84896E+06
 -1      1788 1.31619E+08 2.95082E+06 8.54871E+06-5.14956E+06 1.50129E+05-5.29328E+06
 -1      1789 1.30102E+08 2.78783E+06 8.84273E+05-9.01113E+06 1.29022E+05-4.33070E+06
 -1      1790 4.18875E+07-1.88602E+07 4.29153E+05-6.41600E+07 1.69118E+06 5.36098E+05
 -1      1791 1.56225E+07-2.58630E+07 3.83465E+04-1.01165E+07-3.72464E+06 7.99379E+05
 -1      1792 1.06125E+08-1.34048E+07 5.92087E+06-1.64879E+07-2.65018E+06 6.16283E+05
 -1      1793 1.82931E+08 2.35408E+06 9.15656E+06 5.33536E+06-7.83322E+05-5.46934E+05
 -1      1794 1.87853E+08 2.74506E+06 1.52859E+07-1.04165E+06 8.80905E+00 1.05218E+03
 -1      1795 3.10492E+07-3.79877E+07-2.13205E+06-3.16542E+07-4.97565E+02 7.15195E+02
 -1      1796 3.53020E+07-1.75284E+07-7.74431E+05-4.85402E+07-2.26846E+06-1.84726E+06
 -1      1797 1.31620E+08 2.95101E+06 8.54816E+06-5.14615E+06-1.51053E+05 5.29337E+06
 -1      1798-5.67227E+07-3.84841E+07-1.19613E+07-4.49743E+07 4.16362E+06 4.07204E+06
 -1      1799-7.58396E+07-1.17712E+07-1.26442E+07-2.95918E+07 1.99388E+06 1.16388E+07
 -1      1800-6.56480E+07-1.26831E+07-2.61700E+05-3.36114E+07 1.91119E+06 8.70084E+06
 -1      1801-3.85185E+07-3.94829E+07 6.23373E+04-4.40129E+07 2.70852E+06 2.00838E+06
 -1      1802-1.41490E+08-3.19330E+07-1.04306E+07-5.73995E+07 4.54528E+06 7.25087E+06
 -1      1803-1.36017E+08-7.13830E+07-2.17405E+07-8.58036E+07 1.92355E+06 2.06082E+06
 -1      1804-1.16099E+08-6.10674E+07-3.68327E+05-7.33572E+07 1.16444E+06 5.49614E+05
 -1      1805-5.66786E+07-3.85026E+07-1.19589E+07-4.49658E+07-4.16276E+06-4.06851E+06
 -1      1806-7.58315E+07-1.17541E+07-1.26346E+07-2.95915E+07-1.99435E+06-1.16389E+07
 -1      1807-1.48550E+08-3.29847E+07-2.43820E+07-5.98678E+07 8.99655E+02-1.18353E+03
 -1      1808-1.35995E+08-7.14040E+07-2.17367E+07-8.57787E+07-1.92478E+06-2.05771E+06
 -1      1809 3.64146E+07-3.78225E+07-6.95846E+05-3.26338E+07-4.00570E+06-4.43958E+05
 -1      1810 2.20294E+07-1.97224E+07 9.03729E+05-4.71194E+06-1.92632E+06 1.00860E+06
 -1      1811 1.78903E+08 1.34432E+06-1.45406E+05 6.52477E+06-5.85977E+05-1.01498E+06
 -1      1812 1.87433E+08 2.96232E+06 5.92379E+06-1.43820E+06-2.95825E+05 2.17720E+06
 -1      1813 1.09138E+08-1.44427E+07-5.67207E+05-1.92857E+07-9.45952E+05 2.08171E+05
 -1      1814 4.18885E+07-1.88602E+07 4.33914E+05-6.41592E+07-1.69112E+06-5.37133E+05
 -1      1815 1.30101E+08 2.78624E+06 8.83814E+05-9.00989E+06-1.28740E+05 4.33070E+06
 -1      1816-1.16098E+08-6.10625E+07-3.63814E+05-7.33573E+07-1.16407E+06-5.51506E+05
 -1      1817-3.85200E+07-3.94818E+07 6.39567E+04-4.40109E+07-2.71003E+06-2.00976E+06
 -1      1818-1.41489E+08-3.19447E+07-1.04328E+07-5.74035E+07-4.54546E+06-7.24685E+06
 -1      1819-6.56501E+07-1.26837E+07-2.65933E+05-3.36115E+07-1.91075E+06-8.69954E+06
 -3
 9999
